$*$$$$$$$$$$$$$$$$$$$$$$$$$$$$$$$$$$$$$$$$$$$$$$$$$$$$$$$$$$$$$$$$$
$*
$*                    Simcenter v11.0.0.33 Translator
$*                    for NX Nastran version 11.0
$*
$*             FEM FILE: C:\Users\Patricio\Satellogic Dropbox\Patricio Whittingslow\Finitos I\problem\modeloChoto\choto_fem1.fem
$*             SIM FILE: C:\Users\Patricio\Satellogic Dropbox\Patricio Whittingslow\Finitos I\problem\modeloChoto\choto_sim1.sim
$*        ANALYSIS TYPE: Structural
$*        SOLUTION NAME: Solution 1
$*        SOLUTION TYPE: SOL 101 Linear Statics - Global Constraints
$*
$*    SOLVER INPUT FILE: choto_sim1-solution_1.dat
$*        CREATION DATE: 10-Oct-2019
$*        CREATION TIME: 22:11:58
$*             HOSTNAME: COOLMASTER
$*      NASTRAN LICENSE: Desktop Bundle
$*
$*                UNITS: mm (milli-newton)
$*                      ... LENGTH : mm
$*                      ... TIME   : sec
$*                      ... MASS   : kilogram (kg)
$*                      ... TEMPERATURE : deg Celsius
$*                      ... FORCE  : milli-newton
$*                      ... THERMAL ENERGY : mN-mm (micro-joule)
$*
$* IMPORTANT NOTE:
$*     This banner was generated by Simcenter and altering this 
$*     information may compromise the pre and post processing of results
$*
$*$$$$$$$$$$$$$$$$$$$$$$$$$$$$$$$$$$$$$$$$$$$$$$$$$$$$$$$$$$$$$$$$$
$*
$*$$$$$$$$$$$$$$$$$$$$$$$$$$$$$$$$$$$
$*
$* FILE MANAGEMENT
$*
$*$$$$$$$$$$$$$$$$$$$$$$$$$$$$$$$$$$$
$*
$*
$*$$$$$$$$$$$$$$$$$$$$$$$$$$$$$$$$$$$
$*
$* EXECUTIVE CONTROL
$*
$*$$$$$$$$$$$$$$$$$$$$$$$$$$$$$$$$$$$
$*
ID,NASTRAN,choto_sim1-solution_1
SOL 101
CEND
$*
$*$$$$$$$$$$$$$$$$$$$$$$$$$$$$$$$$$$$
$*
$* CASE CONTROL
$*
$*$$$$$$$$$$$$$$$$$$$$$$$$$$$$$$$$$$$
$*
ECHO = NONE
SPC = 1
OUTPUT
DISPLACEMENT(PLOT,REAL) = ALL
SPCFORCES(PLOT,REAL) = ALL
STRESS(PLOT,REAL,VONMISES,CENTER) = ALL
$*  Step: Subcase - Static Loads 1
SUBCASE 1
LABEL = Subcase - Static Loads 1
LOAD = 2
$*
$*$$$$$$$$$$$$$$$$$$$$$$$$$$$$$$$$$$$
$*
$* BULK DATA
$*
$*$$$$$$$$$$$$$$$$$$$$$$$$$$$$$$$$$$$
$*
BEGIN BULK
$*
$* PARAM CARDS
$*
PARAM      K6ROT100.0000
PARAM     OIBULK     YES
PARAM    OMACHPR     YES
PARAM       POST      -2
PARAM    POSTEXT     YES
PARAM    UNITSYS   MN-MM
$*
$* GRID CARDS
$*
GRID*                603               00.0000000000E+006.5000000000E+00+
*       2.0000000000E+00               0
GRID*                992               00.0000000000E+006.5000000000E+00+
*       0.0000000000E+00               0
GRID*                993               09.9368340365E-158.4824686050E+00+
*       0.0000000000E+00               0
GRID*                594               09.9368340365E-158.4824686050E+00+
*       1.0000000000E+00               0
GRID*                994               05.8992300034E+006.0951914787E+00+
*       0.0000000000E+00               0
GRID*                595               05.8992300034E+006.0951914787E+00+
*       1.0000000000E+00               0
GRID*                995               06.5000000000E+000.0000000000E+00+
*       0.0000000000E+00               0
GRID*                606               06.5000000000E+000.0000000000E+00+
*       2.0000000000E+00               0
GRID*                610               06.9368634224E+004.8818235397E+00+
*       2.0000000000E+00               0
GRID*                999               06.9368634224E+004.8818235397E+00+
*       0.0000000000E+00               0
GRID*                996               08.4824686050E+001.0388027947E-15+
*       0.0000000000E+00               0
GRID*                607               08.4824686050E+001.0388027947E-15+
*       2.0000000000E+00               0
GRID*                997               09.2187194824E+008.4312858582E+00+
*       0.0000000000E+00               0
GRID*                598               09.2187194824E+008.4312858582E+00+
*       1.0000000000E+00               0
GRID*                998               09.2187194824E+006.4876818657E+00+
*       0.0000000000E+00               0
GRID*                609               09.2187194824E+006.4876818657E+00+
*       2.0000000000E+00               0
GRID*               1000               01.0000000000E+016.4876818657E+00+
*       0.0000000000E+00               0
GRID*                611               01.0000000000E+016.4876818657E+00+
*       2.0000000000E+00               0
GRID*               1001               01.0000000000E+018.4312858582E+00+
*       0.0000000000E+00               0
GRID*                612               01.0000000000E+018.4312858582E+00+
*       2.0000000000E+00               0
GRID*                982               00.0000000000E+006.5000000000E+00+
*       5.0000000000E-01               0
GRID*                914               04.9684170183E-157.4912343025E+00+
*       0.0000000000E+00               0
GRID*                915               07.4526256676E-157.9868514538E+00+
*       0.0000000000E+00               0
GRID*                916               02.4842083689E-156.9956171513E+00+
*       0.0000000000E+00               0
GRID*                515               04.9684170183E-157.4912343025E+00+
*       2.0000000000E+00               0
GRID*                516               02.4842083689E-156.9956171513E+00+
*       2.0000000000E+00               0
GRID*                517               07.4526256676E-157.9868514538E+00+
*       2.0000000000E+00               0
GRID*                983               09.9368340365E-158.4824686050E+00+
*       5.0000000000E-01               0
GRID*                917               09.3006100060E-018.4313257356E+00+
*       0.0000000000E+00               0
GRID*                918               01.8489070317E+008.2785150694E+00+
*       0.0000000000E+00               0
GRID*                919               02.7454580541E+008.0258782316E+00+
*       0.0000000000E+00               0
GRID*                920               03.6089034280E+007.6764628067E+00+
*       0.0000000000E+00               0
GRID*                921               04.4288313905E+007.2344817740E+00+
*       0.0000000000E+00               0
GRID*                922               05.1953541406E+006.7052634911E+00+
*       0.0000000000E+00               0
GRID*                923               03.1819808863E+007.8630322291E+00+
*       0.0000000000E+00               0
GRID*                924               02.3006528136E+008.1645118426E+00+
*       0.0000000000E+00               0
GRID*                925               04.6573307048E-018.4696732808E+00+
*       0.0000000000E+00               0
GRID*                926               01.3915831476E+008.3675424758E+00+
*       0.0000000000E+00               0
GRID*                927               05.5556723877E+006.4098963798E+00+
*       0.0000000000E+00               0
GRID*                928               04.8193625893E+006.9804022650E+00+
*       0.0000000000E+00               0
GRID*                929               04.0249385592E+007.4667350122E+00+
*       0.0000000000E+00               0
GRID*                518               09.3006100060E-018.4313257356E+00+
*       2.0000000000E+00               0
GRID*                519               01.8489070317E+008.2785150694E+00+
*       2.0000000000E+00               0
GRID*                520               02.7454580541E+008.0258782316E+00+
*       2.0000000000E+00               0
GRID*                521               03.6089034280E+007.6764628067E+00+
*       2.0000000000E+00               0
GRID*                522               04.4288313905E+007.2344817740E+00+
*       2.0000000000E+00               0
GRID*                523               05.1953541406E+006.7052634911E+00+
*       2.0000000000E+00               0
GRID*                524               05.5556723877E+006.4098963798E+00+
*       2.0000000000E+00               0
GRID*                525               03.1819808863E+007.8630322291E+00+
*       2.0000000000E+00               0
GRID*                526               04.0249385592E+007.4667350122E+00+
*       2.0000000000E+00               0
GRID*                527               04.8193625893E+006.9804022650E+00+
*       2.0000000000E+00               0
GRID*                528               02.3006528136E+008.1645118426E+00+
*       2.0000000000E+00               0
GRID*                529               01.3915831476E+008.3675424758E+00+
*       2.0000000000E+00               0
GRID*                530               04.6573307048E-018.4696732808E+00+
*       2.0000000000E+00               0
GRID*                930               06.4199737613E+001.0168239773E+00+
*       0.0000000000E+00               0
GRID*                931               06.1818665128E+002.0086102456E+00+
*       0.0000000000E+00               0
GRID*                932               05.7915417005E+002.9509379172E+00+
*       0.0000000000E+00               0
GRID*                933               05.2586102942E+003.8206040394E+00+
*       0.0000000000E+00               0
GRID*                934               04.5961942673E+004.5961942673E+00+
*       0.0000000000E+00               0
GRID*                935               03.8206040394E+005.2586102942E+00+
*       0.0000000000E+00               0
GRID*                936               02.9509379172E+005.7915417005E+00+
*       0.0000000000E+00               0
GRID*                937               02.0086102456E+006.1818665128E+00+
*       0.0000000000E+00               0
GRID*                938               01.0168239773E+006.4199737613E+00+
*       0.0000000000E+00               0
GRID*                939               06.0052161812E+002.4874420307E+00+
*       0.0000000000E+00               0
GRID*                940               06.3204036597E+001.5173947078E+00+
*       0.0000000000E+00               0
GRID*                941               06.4799625095E+005.0998412125E-01+
*       0.0000000000E+00               0
GRID*                942               05.5421605309E+003.3962403704E+00+
*       0.0000000000E+00               0
GRID*                943               04.2214124080E+004.9426388703E+00+
*       0.0000000000E+00               0
GRID*                944               04.9426388703E+004.2214124080E+00+
*       0.0000000000E+00               0
GRID*                945               01.5173947078E+006.3204036597E+00+
*       0.0000000000E+00               0
GRID*                946               05.0998412125E-016.4799625095E+00+
*       0.0000000000E+00               0
GRID*                947               02.4874420307E+006.0052161812E+00+
*       0.0000000000E+00               0
GRID*                948               03.3962403704E+005.5421605309E+00+
*       0.0000000000E+00               0
GRID*                531               06.4199737613E+001.0168239773E+00+
*       2.0000000000E+00               0
GRID*                532               06.1818665128E+002.0086102456E+00+
*       2.0000000000E+00               0
GRID*                533               05.7915417005E+002.9509379172E+00+
*       2.0000000000E+00               0
GRID*                534               05.2586102942E+003.8206040394E+00+
*       2.0000000000E+00               0
GRID*                535               04.5961942673E+004.5961942673E+00+
*       2.0000000000E+00               0
GRID*                536               03.8206040394E+005.2586102942E+00+
*       2.0000000000E+00               0
GRID*                537               02.9509379172E+005.7915417005E+00+
*       2.0000000000E+00               0
GRID*                538               02.0086102456E+006.1818665128E+00+
*       2.0000000000E+00               0
GRID*                539               01.0168239773E+006.4199737613E+00+
*       2.0000000000E+00               0
GRID*                540               06.4799625095E+005.0998412125E-01+
*       2.0000000000E+00               0
GRID*                541               06.3204036597E+001.5173947078E+00+
*       2.0000000000E+00               0
GRID*                542               06.0052161812E+002.4874420307E+00+
*       2.0000000000E+00               0
GRID*                543               04.9426388703E+004.2214124080E+00+
*       2.0000000000E+00               0
GRID*                544               05.5421605309E+003.3962403704E+00+
*       2.0000000000E+00               0
GRID*                545               04.2214124080E+004.9426388703E+00+
*       2.0000000000E+00               0
GRID*                546               03.3962403704E+005.5421605309E+00+
*       2.0000000000E+00               0
GRID*                547               02.4874420307E+006.0052161812E+00+
*       2.0000000000E+00               0
GRID*                548               05.0998412125E-016.4799625095E+00+
*       2.0000000000E+00               0
GRID*                549               01.5173947078E+006.3204036597E+00+
*       2.0000000000E+00               0
GRID*                984               05.8992300034E+006.0951914787E+00+
*       5.0000000000E-01               0
GRID*                985               06.5000000000E+000.0000000000E+00+
*       5.0000000000E-01               0
GRID*                986               06.9368634224E+004.8818235397E+00+
*       5.0000000000E-01               0
GRID*                949               07.4912343025E+000.0000000000E+00+
*       0.0000000000E+00               0
GRID*                950               07.9868514538E+000.0000000000E+00+
*       0.0000000000E+00               0
GRID*                951               06.9956171513E+000.0000000000E+00+
*       0.0000000000E+00               0
GRID*                550               07.4912343025E+000.0000000000E+00+
*       2.0000000000E+00               0
GRID*                551               07.9868514538E+000.0000000000E+00+
*       2.0000000000E+00               0
GRID*                552               06.9956171513E+000.0000000000E+00+
*       2.0000000000E+00               0
GRID*                952               06.6404454059E+006.6168226352E+00+
*       0.0000000000E+00               0
GRID*                953               07.3487177355E+007.1152700678E+00+
*       0.0000000000E+00               0
GRID*                954               08.0086732549E+007.5797144919E+00+
*       0.0000000000E+00               0
GRID*                955               08.6257501390E+008.0139830292E+00+
*       0.0000000000E+00               0
GRID*                956               08.9222348107E+008.2226344437E+00+
*       0.0000000000E+00               0
GRID*                957               06.9945815707E+006.8660463515E+00+
*       0.0000000000E+00               0
GRID*                958               07.6786954893E+007.3474922883E+00+
*       0.0000000000E+00               0
GRID*                959               08.3172116969E+007.7968487605E+00+
*       0.0000000000E+00               0
GRID*                960               06.2698377046E+006.3560070570E+00+
*       0.0000000000E+00               0
GRID*                553               06.6404454059E+006.6168226352E+00+
*       2.0000000000E+00               0
GRID*                554               07.3487177355E+007.1152700678E+00+
*       2.0000000000E+00               0
GRID*                555               08.0086732549E+007.5797144919E+00+
*       2.0000000000E+00               0
GRID*                556               08.6257501390E+008.0139830292E+00+
*       2.0000000000E+00               0
GRID*                557               08.9222348107E+008.2226344437E+00+
*       2.0000000000E+00               0
GRID*                558               06.9945815707E+006.8660463515E+00+
*       2.0000000000E+00               0
GRID*                559               07.6786954893E+007.3474922883E+00+
*       2.0000000000E+00               0
GRID*                560               08.3172116969E+007.7968487605E+00+
*       2.0000000000E+00               0
GRID*                561               06.2698377046E+006.3560070570E+00+
*       2.0000000000E+00               0
GRID*                961               08.5271333042E+006.0009774568E+00+
*       0.0000000000E+00               0
GRID*                962               07.7691424641E+005.4675406841E+00+
*       0.0000000000E+00               0
GRID*                963               07.3530029419E+005.1746821139E+00+
*       0.0000000000E+00               0
GRID*                964               08.1481378839E+005.7342590708E+00+
*       0.0000000000E+00               0
GRID*                965               08.8729263912E+006.2443296642E+00+
*       0.0000000000E+00               0
GRID*                562               08.5271333042E+006.0009774568E+00+
*       2.0000000000E+00               0
GRID*                563               07.7691424641E+005.4675406841E+00+
*       2.0000000000E+00               0
GRID*                564               07.3530029419E+005.1746821139E+00+
*       2.0000000000E+00               0
GRID*                565               08.1481378839E+005.7342590708E+00+
*       2.0000000000E+00               0
GRID*                566               08.8729263912E+006.2443296642E+00+
*       2.0000000000E+00               0
GRID*                966               07.4819993286E+003.9964924513E+00+
*       0.0000000000E+00               0
GRID*                967               07.9147290884E+003.0511199376E+00+
*       0.0000000000E+00               0
GRID*                968               08.2285505484E+002.0599083840E+00+
*       0.0000000000E+00               0
GRID*                969               08.4187493203E+001.0377495601E+00+
*       0.0000000000E+00               0
GRID*                970               07.2230087136E+004.4475181197E+00+
*       0.0000000000E+00               0
GRID*                971               07.7128620531E+003.5304423756E+00+
*       0.0000000000E+00               0
GRID*                972               08.3393253610E+001.5517457692E+00+
*       0.0000000000E+00               0
GRID*                973               08.0868415702E+002.5603270943E+00+
*       0.0000000000E+00               0
GRID*                974               08.4665237428E+005.1985198556E-01+
*       0.0000000000E+00               0
GRID*                567               07.4819993286E+003.9964924513E+00+
*       2.0000000000E+00               0
GRID*                568               07.9147290884E+003.0511199376E+00+
*       2.0000000000E+00               0
GRID*                569               08.2285505484E+002.0599083840E+00+
*       2.0000000000E+00               0
GRID*                570               08.4187493203E+001.0377495601E+00+
*       2.0000000000E+00               0
GRID*                571               07.2230087136E+004.4475181197E+00+
*       2.0000000000E+00               0
GRID*                572               07.7128620531E+003.5304423756E+00+
*       2.0000000000E+00               0
GRID*                573               08.3393253610E+001.5517457692E+00+
*       2.0000000000E+00               0
GRID*                574               08.0868415702E+002.5603270943E+00+
*       2.0000000000E+00               0
GRID*                575               08.4665237428E+005.1985198556E-01+
*       2.0000000000E+00               0
GRID*                987               08.4824686050E+000.0000000000E+00+
*       5.0000000000E-01               0
GRID*                988               09.2187194824E+006.4876818657E+00+
*       5.0000000000E-01               0
GRID*                989               09.2187194824E+008.4312858582E+00+
*       5.0000000000E-01               0
GRID*                975               09.6093597412E+006.4876818657E+00+
*       0.0000000000E+00               0
GRID*                576               09.6093597412E+006.4876818657E+00+
*       2.0000000000E+00               0
GRID*                976               09.6093597412E+008.4312858582E+00+
*       0.0000000000E+00               0
GRID*                577               09.6093597412E+008.4312858582E+00+
*       2.0000000000E+00               0
GRID*                990               01.0000000000E+016.4876818657E+00+
*       5.0000000000E-01               0
GRID*                977               01.0000000000E+017.7834178607E+00+
*       0.0000000000E+00               0
GRID*                978               01.0000000000E+017.1355498632E+00+
*       0.0000000000E+00               0
GRID*                979               01.0000000000E+017.4594838619E+00+
*       0.0000000000E+00               0
GRID*                980               01.0000000000E+018.1073518594E+00+
*       0.0000000000E+00               0
GRID*                981               01.0000000000E+016.8116158644E+00+
*       0.0000000000E+00               0
GRID*                578               01.0000000000E+017.7834178607E+00+
*       2.0000000000E+00               0
GRID*                579               01.0000000000E+017.1355498632E+00+
*       2.0000000000E+00               0
GRID*                580               01.0000000000E+017.4594838619E+00+
*       2.0000000000E+00               0
GRID*                581               01.0000000000E+018.1073518594E+00+
*       2.0000000000E+00               0
GRID*                582               01.0000000000E+016.8116158644E+00+
*       2.0000000000E+00               0
GRID*                991               01.0000000000E+018.4312858582E+00+
*       5.0000000000E-01               0
GRID*                290               06.7832321262E+005.7360305280E+00+
*       2.0000000000E+00               0
GRID*                291               09.2452456508E+007.4778852876E+00+
*       2.0000000000E+00               0
GRID*                292               07.5694998838E+006.3181308126E+00+
*       2.0000000000E+00               0
GRID*                293               08.3709165955E+006.9878812518E+00+
*       2.0000000000E+00               0
GRID*                294               04.8816345611E+005.6771246583E+00+
*       2.0000000000E+00               0
GRID*                295               02.8590347136E+006.8917929278E+00+
*       2.0000000000E+00               0
GRID*                296               01.9032924153E+007.2021896579E+00+
*       2.0000000000E+00               0
GRID*                297               09.4980095269E-017.3937293244E+00+
*       2.0000000000E+00               0
GRID*                298               03.9559812332E+006.4496274821E+00+
*       2.0000000000E+00               0
GRID*                299               06.3546736568E+003.9426791473E+00+
*       2.0000000000E+00               0
GRID*                300               06.8388824353E+003.0553317073E+00+
*       2.0000000000E+00               0
GRID*                301               07.2920025937E+001.5284259124E+00+
*       2.0000000000E+00               0
GRID*                302               07.3109436282E+002.3478633522E+00+
*       2.0000000000E+00               0
GRID*                303               07.1889039743E+007.1366310472E-01+
*       2.0000000000E+00               0
GRID*                304               05.8177339412E+004.9650167750E+00+
*       2.0000000000E+00               0
GRID*                305               09.6226228254E+007.6306515741E+00+
*       2.0000000000E+00               0
GRID*                306               09.6226228254E+007.3067175754E+00+
*       2.0000000000E+00               0
GRID*                307               09.2319825666E+007.9545855729E+00+
*       2.0000000000E+00               0
GRID*                308               08.9354978949E+007.7459341584E+00+
*       2.0000000000E+00               0
GRID*                309               09.6093597412E+008.1073518594E+00+
*       2.0000000000E+00               0
GRID*                310               07.2761872938E+005.6017856080E+00+
*       2.0000000000E+00               0
GRID*                311               06.8600477743E+005.3089270339E+00+
*       2.0000000000E+00               0
GRID*                312               07.1049726448E+006.4674767239E+00+
*       2.0000000000E+00               0
GRID*                313               07.4591088097E+006.7167004402E+00+
*       2.0000000000E+00               0
GRID*                314               07.1763660050E+006.0270806703E+00+
*       2.0000000000E+00               0
GRID*                315               07.6693211725E+005.8928357503E+00+
*       2.0000000000E+00               0
GRID*                316               06.7118387660E+006.1764265816E+00+
*       2.0000000000E+00               0
GRID*                317               08.0483165958E+006.1595541322E+00+
*       2.0000000000E+00               0
GRID*                318               09.6093597412E+006.8116158644E+00+
*       2.0000000000E+00               0
GRID*                319               09.2319825666E+006.9827835766E+00+
*       2.0000000000E+00               0
GRID*                320               08.4490249517E+006.4944293518E+00+
*       2.0000000000E+00               0
GRID*                321               08.7948180390E+006.7377815588E+00+
*       2.0000000000E+00               0
GRID*                322               07.9702082396E+006.6530060322E+00+
*       2.0000000000E+00               0
GRID*                323               07.8598171655E+007.0515756598E+00+
*       2.0000000000E+00               0
GRID*                324               08.1897949252E+007.2837978719E+00+
*       2.0000000000E+00               0
GRID*                325               08.8080811232E+007.2328832697E+00+
*       2.0000000000E+00               0
GRID*                326               08.4983333672E+007.5009321405E+00+
*       2.0000000000E+00               0
GRID*                327               01.9559513274E+006.6920280783E+00+
*       2.0000000000E+00               0
GRID*                328               01.4600581968E+006.8110817125E+00+
*       2.0000000000E+00               0
GRID*                329               02.4338224765E+006.5368297132E+00+
*       2.0000000000E+00               0
GRID*                330               02.3811635644E+007.0469912929E+00+
*       2.0000000000E+00               0
GRID*                331               02.8022463861E+007.4588355879E+00+
*       2.0000000000E+00               0
GRID*                332               03.2339690733E+007.2841278733E+00+
*       2.0000000000E+00               0
GRID*                333               02.3243752369E+007.6140339529E+00+
*       2.0000000000E+00               0
GRID*                334               01.8760997252E+007.7403523699E+00+
*       2.0000000000E+00               0
GRID*                335               04.6503050314E-017.9612800378E+00+
*       2.0000000000E+00               0
GRID*                336               09.8331246552E-016.9068515457E+00+
*       2.0000000000E+00               0
GRID*                337               01.4265466840E+007.2979594911E+00+
*       2.0000000000E+00               0
GRID*                338               04.7490047634E-016.9468646622E+00+
*       2.0000000000E+00               0
GRID*                339               04.7490047634E-017.4424818134E+00+
*       2.0000000000E+00               0
GRID*                340               01.3993539940E+007.8361222031E+00+
*       2.0000000000E+00               0
GRID*                341               09.3993097949E-017.9125275487E+00+
*       2.0000000000E+00               0
GRID*                342               04.3511193050E+005.4678674830E+00+
*       2.0000000000E+00               0
GRID*                343               04.7389144142E+005.1366594628E+00+
*       2.0000000000E+00               0
GRID*                344               02.9049863130E+006.3416673093E+00+
*       2.0000000000E+00               0
GRID*                345               04.4188078971E+006.0633760702E+00+
*       2.0000000000E+00               0
GRID*                346               05.0384943518E+006.1911940756E+00+
*       2.0000000000E+00               0
GRID*                347               04.5756676879E+006.5774454875E+00+
*       2.0000000000E+00               0
GRID*                348               03.8882926410E+005.8541188949E+00+
*       2.0000000000E+00               0
GRID*                349               03.4534595728E+006.1205845864E+00+
*       2.0000000000E+00               0
GRID*                350               03.4075079734E+006.6707102050E+00+
*       2.0000000000E+00               0
GRID*                351               04.1924063144E+006.8420546322E+00+
*       2.0000000000E+00               0
GRID*                352               03.7824423332E+007.0630451504E+00+
*       2.0000000000E+00               0
GRID*                353               06.9183365022E+003.9695858042E+00+
*       2.0000000000E+00               0
GRID*                354               06.5967780461E+003.4990054273E+00+
*       2.0000000000E+00               0
GRID*                355               07.1604408915E+003.5259120842E+00+
*       2.0000000000E+00               0
GRID*                356               06.6457685396E+004.4122513435E+00+
*       2.0000000000E+00               0
GRID*                357               06.3152120630E+003.0031348098E+00+
*       2.0000000000E+00               0
GRID*                358               06.5103744670E+002.5319709734E+00+
*       2.0000000000E+00               0
GRID*                359               06.0731076738E+003.4468085298E+00+
*       2.0000000000E+00               0
GRID*                360               07.3768057698E+003.0532258255E+00+
*       2.0000000000E+00               0
GRID*                361               07.7602765776E+001.7941671496E+00+
*       2.0000000000E+00               0
GRID*                362               07.8553759709E+001.2830877381E+00+
*       2.0000000000E+00               0
GRID*                363               06.7464050634E+002.1782367958E+00+
*       2.0000000000E+00               0
GRID*                364               07.0749130318E+002.7015975297E+00+
*       2.0000000000E+00               0
GRID*                365               06.7369345461E+001.7685180760E+00+
*       2.0000000000E+00               0
GRID*                366               07.3014731109E+001.9381446323E+00+
*       2.0000000000E+00               0
GRID*                367               07.7697470949E+002.2038858695E+00+
*       2.0000000000E+00               0
GRID*                368               07.6128363663E+002.6994916479E+00+
*       2.0000000000E+00               0
GRID*                369               06.8559881803E+001.2726249454E+00+
*       2.0000000000E+00               0
GRID*                370               07.9549918253E+005.1887478188E-01+
*       2.0000000000E+00               0
GRID*                371               07.8038266612E+008.7570633424E-01+
*       2.0000000000E+00               0
GRID*                372               07.2404532840E+001.1210445086E+00+
*       2.0000000000E+00               0
GRID*                373               07.3400691384E+003.5683155236E-01+
*       2.0000000000E+00               0
GRID*                374               06.8044388706E+008.6524354153E-01+
*       2.0000000000E+00               0
GRID*                375               06.8444519872E+003.5683155236E-01+
*       2.0000000000E+00               0
GRID*                376               05.8066419823E+003.8816415981E+00+
*       2.0000000000E+00               0
GRID*                377               05.2069641043E+004.7806055211E+00+
*       2.0000000000E+00               0
GRID*                378               05.3496842512E+005.3210707166E+00+
*       2.0000000000E+00               0
GRID*                379               05.5381721245E+004.3928104119E+00+
*       2.0000000000E+00               0
GRID*                380               06.0862037990E+004.4538479611E+00+
*       2.0000000000E+00               0
GRID*                381               05.3904322822E+005.8861580685E+00+
*       2.0000000000E+00               0
GRID*                382               06.3772986818E+004.9234201573E+00+
*       2.0000000000E+00               0
GRID*                383               05.8584819723E+005.5301041268E+00+
*       2.0000000000E+00               0
GRID*                384               06.3004830337E+005.3505236515E+00+
*       2.0000000000E+00               0
GRID*                385               06.3412310648E+005.9156110034E+00+
*       2.0000000000E+00               0
GRID*                722               04.8816247036E+005.6771158200E+00+
*       0.0000000000E+00               0
GRID*                723               06.7832271678E+005.7360262428E+00+
*       0.0000000000E+00               0
GRID*                724               09.2452480837E+007.4778838647E+00+
*       0.0000000000E+00               0
GRID*                725               07.5694952679E+006.3181306612E+00+
*       0.0000000000E+00               0
GRID*                726               08.3709140850E+006.9878812615E+00+
*       0.0000000000E+00               0
GRID*                727               06.3546688620E+003.9426751367E+00+
*       0.0000000000E+00               0
GRID*                728               06.8388797340E+003.0553305949E+00+
*       0.0000000000E+00               0
GRID*                729               07.2920036707E+001.5284270845E+00+
*       0.0000000000E+00               0
GRID*                730               07.3109431883E+002.3478634246E+00+
*       0.0000000000E+00               0
GRID*                731               07.1889042431E+007.1366347601E-01+
*       0.0000000000E+00               0
GRID*                732               05.8177347307E+004.9650173913E+00+
*       0.0000000000E+00               0
GRID*                733               02.8590392182E+006.8917926124E+00+
*       0.0000000000E+00               0
GRID*                734               01.9032932255E+007.2021897606E+00+
*       0.0000000000E+00               0
GRID*                735               09.4980114149E-017.3937294067E+00+
*       0.0000000000E+00               0
GRID*                736               03.9559752312E+006.4496262444E+00+
*       0.0000000000E+00               0
GRID*                737               09.6226240418E+007.6306508627E+00+
*       0.0000000000E+00               0
GRID*                738               09.6226240418E+007.3067168639E+00+
*       0.0000000000E+00               0
GRID*                739               09.2319837830E+007.9545848614E+00+
*       0.0000000000E+00               0
GRID*                740               08.9354991113E+007.7459334469E+00+
*       0.0000000000E+00               0
GRID*                741               09.6093597412E+008.1073518594E+00+
*       0.0000000000E+00               0
GRID*                742               07.2761848146E+005.6017834654E+00+
*       0.0000000000E+00               0
GRID*                743               06.8600452951E+005.3089248912E+00+
*       0.0000000000E+00               0
GRID*                744               07.1049703369E+006.4674766482E+00+
*       0.0000000000E+00               0
GRID*                745               07.4591065017E+006.7167003645E+00+
*       0.0000000000E+00               0
GRID*                746               07.1763612179E+006.0270784520E+00+
*       0.0000000000E+00               0
GRID*                747               07.6693188646E+005.8928356746E+00+
*       0.0000000000E+00               0
GRID*                748               06.7118362869E+006.1764244390E+00+
*       0.0000000000E+00               0
GRID*                749               08.0483142879E+006.1595540564E+00+
*       0.0000000000E+00               0
GRID*                750               09.6093597412E+006.8116158644E+00+
*       0.0000000000E+00               0
GRID*                751               09.2319837830E+006.9827828652E+00+
*       0.0000000000E+00               0
GRID*                752               08.4490236964E+006.4944293566E+00+
*       0.0000000000E+00               0
GRID*                753               08.7948167837E+006.7377815636E+00+
*       0.0000000000E+00               0
GRID*                754               07.9702046765E+006.6530059613E+00+
*       0.0000000000E+00               0
GRID*                755               07.8598159103E+007.0515756646E+00+
*       0.0000000000E+00               0
GRID*                756               08.1897936700E+007.2837978767E+00+
*       0.0000000000E+00               0
GRID*                757               08.8080810843E+007.2328825631E+00+
*       0.0000000000E+00               0
GRID*                758               08.4983321120E+007.5009321453E+00+
*       0.0000000000E+00               0
GRID*                759               06.3152107124E+003.0031342537E+00+
*       0.0000000000E+00               0
GRID*                760               06.5103731163E+002.5319704172E+00+
*       0.0000000000E+00               0
GRID*                761               06.0731052764E+003.4468065245E+00+
*       0.0000000000E+00               0
GRID*                762               06.5967742980E+003.4990028658E+00+
*       0.0000000000E+00               0
GRID*                763               06.9183341048E+003.9695837989E+00+
*       0.0000000000E+00               0
GRID*                764               06.6457661422E+004.4122493382E+00+
*       0.0000000000E+00               0
GRID*                765               07.1604395408E+003.5259115280E+00+
*       0.0000000000E+00               0
GRID*                766               07.3768044192E+003.0532252693E+00+
*       0.0000000000E+00               0
GRID*                767               07.7602771161E+001.7941677357E+00+
*       0.0000000000E+00               0
GRID*                768               07.8553765094E+001.2830883241E+00+
*       0.0000000000E+00               0
GRID*                769               06.7464048435E+002.1782368320E+00+
*       0.0000000000E+00               0
GRID*                770               07.3014734295E+001.9381452545E+00+
*       0.0000000000E+00               0
GRID*                771               06.7369350847E+001.7685186620E+00+
*       0.0000000000E+00               0
GRID*                772               07.0749114612E+002.7015970098E+00+
*       0.0000000000E+00               0
GRID*                773               07.7697468749E+002.2038859057E+00+
*       0.0000000000E+00               0
GRID*                774               07.6128361463E+002.6994916841E+00+
*       0.0000000000E+00               0
GRID*                775               06.8559887188E+001.2726255314E+00+
*       0.0000000000E+00               0
GRID*                776               07.9549918253E+005.1887478188E-01+
*       0.0000000000E+00               0
GRID*                777               07.8038267956E+008.7570651989E-01+
*       0.0000000000E+00               0
GRID*                778               07.2404539569E+001.1210452803E+00+
*       0.0000000000E+00               0
GRID*                779               07.3400692728E+003.5683173801E-01+
*       0.0000000000E+00               0
GRID*                780               06.8044390050E+008.6524372718E-01+
*       0.0000000000E+00               0
GRID*                781               06.8444521215E+003.5683173801E-01+
*       0.0000000000E+00               0
GRID*                782               05.8066395849E+003.8816395928E+00+
*       0.0000000000E+00               0
GRID*                783               04.7389094854E+005.1366550436E+00+
*       0.0000000000E+00               0
GRID*                784               04.3511143762E+005.4678630639E+00+
*       0.0000000000E+00               0
GRID*                785               06.3412285856E+005.9156088607E+00+
*       0.0000000000E+00               0
GRID*                786               05.2069644990E+004.7806058293E+00+
*       0.0000000000E+00               0
GRID*                787               05.3496797172E+005.3210666056E+00+
*       0.0000000000E+00               0
GRID*                788               05.5381725193E+004.3928107201E+00+
*       0.0000000000E+00               0
GRID*                789               06.0862017963E+004.4538462640E+00+
*       0.0000000000E+00               0
GRID*                790               06.3772990766E+004.9234204655E+00+
*       0.0000000000E+00               0
GRID*                791               05.8584823670E+005.5301044350E+00+
*       0.0000000000E+00               0
GRID*                792               05.3904273535E+005.8861536494E+00+
*       0.0000000000E+00               0
GRID*                793               06.3004809493E+005.3505218170E+00+
*       0.0000000000E+00               0
GRID*                794               02.8022486384E+007.4588354302E+00+
*       0.0000000000E+00               0
GRID*                795               02.3811662219E+007.0469911865E+00+
*       0.0000000000E+00               0
GRID*                796               02.3243756420E+007.6140340042E+00+
*       0.0000000000E+00               0
GRID*                797               03.2339713257E+007.2841277156E+00+
*       0.0000000000E+00               0
GRID*                798               01.9559517325E+006.6920281296E+00+
*       0.0000000000E+00               0
GRID*                799               01.4600586019E+006.8110817638E+00+
*       0.0000000000E+00               0
GRID*                800               02.4338247289E+006.5368295555E+00+
*       0.0000000000E+00               0
GRID*                801               01.8761001304E+007.7403524212E+00+
*       0.0000000000E+00               0
GRID*                802               04.6503050314E-017.9612800378E+00+
*       0.0000000000E+00               0
GRID*                803               09.8331255992E-016.9068515869E+00+
*       0.0000000000E+00               0
GRID*                804               01.4265471835E+007.2979595836E+00+
*       0.0000000000E+00               0
GRID*                805               04.7490057074E-016.9468647034E+00+
*       0.0000000000E+00               0
GRID*                806               04.7490057074E-017.4424818546E+00+
*       0.0000000000E+00               0
GRID*                807               01.3993540884E+007.8361222443E+00+
*       0.0000000000E+00               0
GRID*                808               09.3993107389E-017.9125275899E+00+
*       0.0000000000E+00               0
GRID*                809               02.9049885653E+006.3416671516E+00+
*       0.0000000000E+00               0
GRID*                810               05.0384894230E+006.1911896565E+00+
*       0.0000000000E+00               0
GRID*                811               04.4187999674E+006.0633710322E+00+
*       0.0000000000E+00               0
GRID*                812               04.5756646868E+006.5774448687E+00+
*       0.0000000000E+00               0
GRID*                813               03.8882896400E+005.8541182761E+00+
*       0.0000000000E+00               0
GRID*                814               03.4534565718E+006.1205839676E+00+
*       0.0000000000E+00               0
GRID*                815               03.4075072247E+006.6707094284E+00+
*       0.0000000000E+00               0
GRID*                816               04.1924033134E+006.8420540134E+00+
*       0.0000000000E+00               0
GRID*                817               03.7824393322E+007.0630445316E+00+
*       0.0000000000E+00               0
GRID*                834               06.4799626469E+005.0998097224E-01+
*       5.0000109128E-01               0
GRID*                835               06.4199723489E+001.0168312362E+00+
*       5.0000341946E-01               0
GRID*                836               06.3204030234E+001.5173962099E+00+
*       5.0000541193E-01               0
GRID*                837               06.1818682991E+002.0086042520E+00+
*       5.0000514526E-01               0
GRID*                838               05.5421611469E+003.3962388630E+00+
*       4.9999458820E-01               0
GRID*                839               05.7915387340E+002.9509434305E+00+
*       4.9999485464E-01               0
GRID*                840               05.2586144290E+003.8205979116E+00+
*       4.9999658066E-01               0
GRID*                841               06.0052128735E+002.4874500118E+00+
*       5.0000000134E-01               0
GRID*                842               04.9426367408E+004.2214147312E+00+
*       4.9999890865E-01               0
GRID*                843               04.5961942673E+004.5961942673E+00+
*       5.0000000000E-01               0
GRID*                844               04.2214147312E+004.9426367408E+00+
*       5.0000109136E-01               0
GRID*                845               03.8205979116E+005.2586144290E+00+
*       5.0000341934E-01               0
GRID*                846               05.0998097224E-016.4799626469E+00+
*       4.9999890872E-01               0
GRID*                847               01.0168312362E+006.4199723489E+00+
*       4.9999658054E-01               0
GRID*                848               03.3962388630E+005.5421611469E+00+
*       5.0000541180E-01               0
GRID*                849               02.9509434305E+005.7915387340E+00+
*       5.0000514536E-01               0
GRID*                850               01.5173962099E+006.3204030234E+00+
*       4.9999458807E-01               0
GRID*                851               02.0086042520E+006.1818682991E+00+
*       4.9999485474E-01               0
GRID*                852               02.4874500118E+006.0052128735E+00+
*       4.9999999866E-01               0
GRID*                821               04.4288236342E+007.2344863543E+00+
*       5.0000178685E-01               0
GRID*                822               04.0249356819E+007.4667365111E+00+
*       5.0000381022E-01               0
GRID*                823               04.8193629759E+006.9804018329E+00+
*       4.9999821290E-01               0
GRID*                824               05.5556821044E+006.4098876570E+00+
*       5.0000460522E-01               0
GRID*                825               05.1953500043E+006.7052666130E+00+
*       4.9999619022E-01               0
GRID*                826               03.6089042441E+007.6764622054E+00+
*       4.9999539499E-01               0
GRID*                827               03.1819678526E+007.8630375036E+00+
*       5.0000000000E-01               0
GRID*                828               02.7454570638E+008.0258783821E+00+
*       5.0000460502E-01               0
GRID*                829               02.3006559239E+008.1645109163E+00+
*       4.9999618963E-01               0
GRID*                830               01.8489157865E+008.2785129741E+00+
*       4.9999821327E-01               0
GRID*                831               01.3915825621E+008.3675424287E+00+
*       5.0000178700E-01               0
GRID*                832               04.6572002990E-018.4696737451E+00+
*       4.9999539474E-01               0
GRID*                833               09.3006612618E-018.4313250807E+00+
*       5.0000380988E-01               0
GRID*                886               07.2230040959E+004.4475252348E+00+
*       4.9999700773E-01               0
GRID*                887               07.4819968245E+003.9964969335E+00+
*       4.9999549863E-01               0
GRID*                888               07.7128609043E+003.5304446151E+00+
*       5.0000450166E-01               0
GRID*                889               07.9147264790E+003.0511262121E+00+
*       5.0000299175E-01               0
GRID*                890               08.0868461831E+002.5603125244E+00+
*       5.0000000000E-01               0
GRID*                891               08.2285520318E+002.0599017563E+00+
*       4.9999700821E-01               0
GRID*                892               08.4665240616E+005.1984350927E-01+
*       5.0000299219E-01               0
GRID*                893               08.4187498482E+001.0377444548E+00+
*       5.0000450129E-01               0
GRID*                894               08.3393257040E+001.5517432732E+00+
*       4.9999549848E-01               0
GRID*                856               08.2941262631E+007.7806024202E+00+
*       5.0004461877E-01               0
GRID*                857               08.7841105023E+008.1254293673E+00+
*       5.0000831385E-01               0
GRID*                858               07.6908931836E+007.3560764285E+00+
*       5.0002593256E-01               0
GRID*                859               07.1494118426E+006.9750082890E+00+
*       5.0000810914E-01               0
GRID*                860               08.4599381856E+007.8972927505E+00+
*       2.5002230854E-01               0
GRID*                861               08.1513997494E+007.6801584726E+00+
*       2.5002230853E-01               0
GRID*                862               09.0014149886E+008.2783576185E+00+
*       2.5000415675E-01               0
GRID*                863               09.0014149883E+008.2783576178E+00+
*       7.5000415700E-01               0
GRID*                864               08.7049303058E+008.0697062219E+00+
*       2.5000415648E-01               0
GRID*                865               08.5391183799E+007.9530158985E+00+
*       5.0002646628E-01               0
GRID*                866               08.7049303041E+008.0697062196E+00+
*       7.5000415728E-01               0
GRID*                867               08.4599381825E+007.8972927486E+00+
*       7.5002230930E-01               0
GRID*                868               08.1513997449E+007.6801584736E+00+
*       7.5002230866E-01               0
GRID*                869               07.9925097215E+007.5683394264E+00+
*       5.0003527594E-01               0
GRID*                870               07.8497832061E+007.4678954780E+00+
*       7.5001296574E-01               0
GRID*                871               07.8497832110E+007.4678954757E+00+
*       2.5001296566E-01               0
GRID*                872               07.5198054668E+007.2356732399E+00+
*       2.5001296603E-01               0
GRID*                873               06.8949286403E+006.7959154345E+00+
*       7.5000405555E-01               0
GRID*                874               07.2490647927E+007.0451391703E+00+
*       7.5000405537E-01               0
GRID*                875               06.2698377262E+006.3560070189E+00+
*       4.9999999993E-01               0
GRID*                876               06.6404454332E+006.6168225896E+00+
*       4.9999999961E-01               0
GRID*                877               06.8949286446E+006.7959154340E+00+
*       2.5000405536E-01               0
GRID*                878               07.2490647976E+007.0451391680E+00+
*       2.5000405529E-01               0
GRID*                879               07.4201525135E+007.1655423590E+00+
*       5.0001702050E-01               0
GRID*                880               07.5198054618E+007.2356732426E+00+
*       7.5001296613E-01               0
GRID*                881               07.7691424630E+005.4675406844E+00+
*       5.0000000076E-01               0
GRID*                882               08.1481378841E+005.7342590705E+00+
*       4.9999999961E-01               0
GRID*                883               07.3530029434E+005.1746821067E+00+
*       5.0000000021E-01               0
GRID*                884               08.8729263939E+006.2443296657E+00+
*       4.9999999987E-01               0
GRID*                885               08.5271333059E+006.0009774571E+00+
*       4.9999999937E-01               0
GRID*                818               07.4526256439E-157.9868514538E+00+
*       5.0000000000E-01               0
GRID*                819               04.9684170183E-157.4912343025E+00+
*       5.0000000000E-01               0
GRID*                820               02.4842083926E-156.9956171513E+00+
*       5.0000000000E-01               0
GRID*                853               06.9956171513E+000.0000000000E+00+
*       5.0000000000E-01               0
GRID*                854               07.4912343025E+000.0000000000E+00+
*       5.0000000000E-01               0
GRID*                855               07.9868514538E+000.0000000000E+00+
*       5.0000000000E-01               0
GRID*                897               01.0000000000E+017.4594838619E+00+
*       5.0000000000E-01               0
GRID*                898               01.0000000000E+016.9549623989E+00+
*       4.9987138871E-01               0
GRID*                899               01.0000000000E+017.9640053249E+00+
*       5.0012861129E-01               0
GRID*                900               01.0000000000E+017.2975168626E+00+
*       7.5000000000E-01               0
GRID*                901               01.0000000000E+017.6214508613E+00+
*       7.5000000000E-01               0
GRID*                902               01.0000000000E+016.7213221323E+00+
*       2.4993569436E-01               0
GRID*                903               01.0000000000E+016.7213221323E+00+
*       7.4993569436E-01               0
GRID*                904               01.0000000000E+017.0452561310E+00+
*       2.4993569436E-01               0
GRID*                905               01.0000000000E+017.0452561310E+00+
*       7.4993569436E-01               0
GRID*                906               01.0000000000E+017.2072231304E+00+
*       4.9993569436E-01               0
GRID*                907               01.0000000000E+017.2975168626E+00+
*       2.5000000000E-01               0
GRID*                908               01.0000000000E+017.6214508613E+00+
*       2.5000000000E-01               0
GRID*                909               01.0000000000E+018.1976455915E+00+
*       7.5006430564E-01               0
GRID*                910               01.0000000000E+018.1976455915E+00+
*       2.5006430564E-01               0
GRID*                911               01.0000000000E+017.8737115928E+00+
*       7.5006430564E-01               0
GRID*                912               01.0000000000E+017.8737115928E+00+
*       2.5006430564E-01               0
GRID*                913               01.0000000000E+017.7117445934E+00+
*       5.0006430564E-01               0
GRID*                896               09.6093597412E+008.4312858582E+00+
*       5.0000000000E-01               0
GRID*                895               09.6093597412E+006.4876818657E+00+
*       5.0000000000E-01               0
GRID*                613               07.7602771095E+001.7941677343E+00+
*       5.0000000000E-01               0
GRID*                614               02.9049885677E+006.3416671564E+00+
*       5.0000000000E-01               0
GRID*                615               02.4338247319E+006.5368295626E+00+
*       5.0000000000E-01               0
GRID*                616               02.8590392182E+006.8917926124E+00+
*       5.0000000000E-01               0
GRID*                617               03.4075072247E+006.6707094284E+00+
*       5.0000000000E-01               0
GRID*                618               04.5756646859E+006.5774448677E+00+
*       5.0000000000E-01               0
GRID*                619               04.1924033108E+006.8420540092E+00+
*       5.0000000000E-01               0
GRID*                620               03.9559752312E+006.4496262444E+00+
*       5.0000000000E-01               0
GRID*                621               03.8882896353E+005.8541182693E+00+
*       5.0000000000E-01               0
GRID*                622               03.4534565742E+006.1205839724E+00+
*       5.0000000000E-01               0
GRID*                623               07.8553764955E+001.2830883223E+00+
*       5.0000000000E-01               0
GRID*                624               07.8038267817E+008.7570651806E-01+
*       5.0000000000E-01               0
GRID*                625               06.9183340953E+003.9695837940E+00+
*       5.0000000000E-01               0
GRID*                626               06.5967742980E+003.4990028658E+00+
*       5.0000000000E-01               0
GRID*                627               07.1604395313E+003.5259115231E+00+
*       5.0000000000E-01               0
GRID*                628               06.0731052812E+003.4468065269E+00+
*       5.0000000000E-01               0
GRID*                629               06.3152107172E+003.0031342560E+00+
*       5.0000000000E-01               0
GRID*                630               07.2920036707E+001.5284270845E+00+
*       5.0000000000E-01               0
GRID*                631               06.7369350918E+001.7685186650E+00+
*       5.0000000000E-01               0
GRID*                632               07.3014734295E+001.9381452545E+00+
*       5.0000000000E-01               0
GRID*                633               06.7464048506E+002.1782368351E+00+
*       5.0000000000E-01               0
GRID*                634               04.7490057074E-017.4424818546E+00+
*       5.0000000000E-01               0
GRID*                635               06.5103731234E+002.5319704203E+00+
*       5.0000000000E-01               0
GRID*                636               06.3546688620E+003.9426751367E+00+
*       5.0000000000E-01               0
GRID*                637               01.8761001286E+007.7403524150E+00+
*       5.0000000000E-01               0
GRID*                638               01.9032932255E+007.2021897606E+00+
*       5.0000000000E-01               0
GRID*                639               01.4265471835E+007.2979595836E+00+
*       5.0000000000E-01               0
GRID*                640               01.3993540866E+007.8361222381E+00+
*       5.0000000000E-01               0
GRID*                641               04.6503050030E-017.9612800191E+00+
*       5.0000000000E-01               0
GRID*                642               09.3993107104E-017.9125275711E+00+
*       5.0000000000E-01               0
GRID*                643               09.8331255937E-016.9068515840E+00+
*       5.0000000000E-01               0
GRID*                644               04.7490057074E-016.9468647034E+00+
*       5.0000000000E-01               0
GRID*                645               07.3768044112E+003.0532252663E+00+
*       5.0000000000E-01               0
GRID*                646               06.8559887160E+001.2726255309E+00+
*       5.0000000000E-01               0
GRID*                647               06.8388797340E+003.0553305949E+00+
*       5.0000000000E-01               0
GRID*                648               05.5381725125E+004.3928107153E+00+
*       5.0000000000E-01               0
GRID*                649               06.0862017963E+004.4538462640E+00+
*       5.0000000000E-01               0
GRID*                650               05.8066395781E+003.8816395880E+00+
*       5.0000000000E-01               0
GRID*                651               07.2404539569E+001.1210452803E+00+
*       5.0000000000E-01               0
GRID*                652               06.8044390022E+008.6524372664E-01+
*       5.0000000000E-01               0
GRID*                653               06.8444521215E+003.5683173801E-01+
*       5.0000000000E-01               0
GRID*                654               05.2069644990E+004.7806058293E+00+
*       5.0000000000E-01               0
GRID*                655               05.3496797172E+005.3210666056E+00+
*       5.0000000000E-01               0
GRID*                656               05.8177347307E+004.9650173913E+00+
*       5.0000000000E-01               0
GRID*                657               01.9559517355E+006.6920281367E+00+
*       5.0000000000E-01               0
GRID*                658               01.4600586014E+006.8110817609E+00+
*       5.0000000000E-01               0
GRID*                659               09.4980114149E-017.3937294067E+00+
*       5.0000000000E-01               0
GRID*                660               07.6301942258E+006.8371035448E+00+
*       2.5001296628E-01               0
GRID*                661               08.0309036343E+007.1719788450E+00+
*       2.5001296628E-01               0
GRID*                662               08.3325201741E+007.3842418408E+00+
*       7.5002230939E-01               0
GRID*                663               08.3325201741E+007.3842418408E+00+
*       2.5002230939E-01               0
GRID*                664               08.3709140850E+006.9878812615E+00+
*       5.0000000000E-01               0
GRID*                665               08.0309036343E+007.1719788450E+00+
*       7.5001296628E-01               0
GRID*                666               08.0483142861E+006.1595540590E+00+
*       5.0000000000E-01               0
GRID*                667               07.5694952679E+006.3181306612E+00+
*       5.0000000000E-01               0
GRID*                668               07.9702046765E+006.6530059613E+00+
*       5.0000000000E-01               0
GRID*                669               08.4490236946E+006.4944293592E+00+
*       5.0000000000E-01               0
GRID*                670               09.2319837830E+006.9827828652E+00+
*       5.0000000000E-01               0
GRID*                671               08.8080810843E+007.2328825631E+00+
*       5.0000000000E-01               0
GRID*                672               08.7948167837E+006.7377815636E+00+
*       5.0000000000E-01               0
GRID*                673               05.0384894221E+006.1911896556E+00+
*       5.0000000000E-01               0
GRID*                674               09.6093597412E+006.7213221323E+00+
*       2.4993569436E-01               0
GRID*                675               05.8584823670E+005.5301044350E+00+
*       5.0000000000E-01               0
GRID*                676               06.3412285856E+005.9156088607E+00+
*       5.0000000000E-01               0
GRID*                677               06.3004809493E+005.3505218170E+00+
*       5.0000000000E-01               0
GRID*                678               06.8600452951E+005.3089248912E+00+
*       5.0000000000E-01               0
GRID*                679               06.3772990766E+004.9234204655E+00+
*       5.0000000000E-01               0
GRID*                680               06.7118362869E+006.1764244390E+00+
*       5.0000000000E-01               0
GRID*                681               03.2339713231E+007.2841277096E+00+
*       5.0000000000E-01               0
GRID*                682               03.7824393296E+007.0630445255E+00+
*       5.0000000000E-01               0
GRID*                683               02.3811662219E+007.0469911865E+00+
*       5.0000000000E-01               0
GRID*                684               02.3243756398E+007.6140339961E+00+
*       5.0000000000E-01               0
GRID*                685               09.6093597412E+006.7213221323E+00+
*       7.4993569436E-01               0
GRID*                686               07.0749114612E+002.7015970098E+00+
*       5.0000000000E-01               0
GRID*                687               07.6128361383E+002.6994916811E+00+
*       5.0000000000E-01               0
GRID*                688               07.3109431883E+002.3478634246E+00+
*       5.0000000000E-01               0
GRID*                689               02.8022486362E+007.4588354220E+00+
*       5.0000000000E-01               0
GRID*                690               07.1889042431E+007.1366347601E-01+
*       5.0000000000E-01               0
GRID*                691               07.3400692728E+003.5683173801E-01+
*       5.0000000000E-01               0
GRID*                692               07.6301942258E+006.8371035448E+00+
*       7.5001296628E-01               0
GRID*                693               07.3594535553E+006.6465694751E+00+
*       7.5000405457E-01               0
GRID*                694               07.3594535553E+006.6465694751E+00+
*       2.5000405457E-01               0
GRID*                695               07.9549918114E+005.1887478005E-01+
*       5.0000000000E-01               0
GRID*                696               07.7697468683E+002.2038859043E+00+
*       5.0000000000E-01               0
GRID*                697               07.2761848159E+005.6017834634E+00+
*       5.0000000000E-01               0
GRID*                698               08.7696871734E+007.6292431424E+00+
*       7.5002230939E-01               0
GRID*                699               04.7389094854E+005.1366550436E+00+
*       5.0000000000E-01               0
GRID*                700               04.8816247036E+005.6771158200E+00+
*       5.0000000000E-01               0
GRID*                701               04.3511143715E+005.4678630571E+00+
*       5.0000000000E-01               0
GRID*                702               04.4187999674E+006.0633710322E+00+
*       5.0000000000E-01               0
GRID*                703               06.6457661422E+004.4122493382E+00+
*       5.0000000000E-01               0
GRID*                704               06.7832271678E+005.7360262428E+00+
*       5.0000000000E-01               0
GRID*                705               07.1049703369E+006.4674766482E+00+
*       5.0000000000E-01               0
GRID*                706               07.6693188660E+005.8928356726E+00+
*       5.0000000000E-01               0
GRID*                707               09.6226240418E+007.4686838633E+00+
*       7.5000000000E-01               0
GRID*                708               09.6226240418E+007.4686838633E+00+
*       2.5000000000E-01               0
GRID*                709               09.6226240418E+007.2164231318E+00+
*       2.4993569436E-01               0
GRID*                710               09.6226240418E+007.7209445948E+00+
*       2.5006430564E-01               0
GRID*                711               09.6226240418E+007.2164231318E+00+
*       7.4993569436E-01               0
GRID*                712               09.2452480837E+007.4778838647E+00+
*       5.0000000000E-01               0
GRID*                713               08.7696871734E+007.6292431424E+00+
*       2.5002230939E-01               0
GRID*                714               09.6093597412E+008.1976455915E+00+
*       2.5006430564E-01               0
GRID*                715               07.1763612179E+006.0270784520E+00+
*       5.0000000000E-01               0
GRID*                716               09.6093597412E+008.1976455915E+00+
*       7.5006430564E-01               0
GRID*                717               09.3920552512E+008.0447173461E+00+
*       5.0006846257E-01               0
GRID*                718               09.0146792930E+007.8016566160E+00+
*       7.5000415692E-01               0
GRID*                719               09.6226240418E+007.7209445948E+00+
*       7.5006430564E-01               0
GRID*                720               05.3904273535E+005.8861536494E+00+
*       5.0000000000E-01               0
GRID*                721               09.0146792930E+007.8016566160E+00+
*       2.5000415692E-01               0
GRID*                593               00.0000000000E+006.5000000000E+00+
*       1.0000000000E+00               0
GRID*                596               06.5000000000E+000.0000000000E+00+
*       1.0000000000E+00               0
GRID*                600               06.9368634224E+004.8818235397E+00+
*       1.0000000000E+00               0
GRID*                597               08.4824686050E+000.0000000000E+00+
*       1.0000000000E+00               0
GRID*                599               09.2187194824E+006.4876818657E+00+
*       1.0000000000E+00               0
GRID*                601               01.0000000000E+016.4876818657E+00+
*       1.0000000000E+00               0
GRID*                602               01.0000000000E+018.4312858582E+00+
*       1.0000000000E+00               0
GRID*                447               04.9684170183E-157.4912343025E+00+
*       1.0000000000E+00               0
GRID*                448               07.4526256676E-157.9868514538E+00+
*       1.0000000000E+00               0
GRID*                449               02.4842083689E-156.9956171513E+00+
*       1.0000000000E+00               0
GRID*                450               05.1953541406E+006.7052634911E+00+
*       1.0000000000E+00               0
GRID*                451               04.4288313905E+007.2344817740E+00+
*       1.0000000000E+00               0
GRID*                452               03.6089034280E+007.6764628067E+00+
*       1.0000000000E+00               0
GRID*                453               02.7454580541E+008.0258782316E+00+
*       1.0000000000E+00               0
GRID*                454               01.8489070317E+008.2785150694E+00+
*       1.0000000000E+00               0
GRID*                455               09.3006100060E-018.4313257356E+00+
*       1.0000000000E+00               0
GRID*                456               03.1819808863E+007.8630322291E+00+
*       1.0000000000E+00               0
GRID*                457               02.3006528136E+008.1645118426E+00+
*       1.0000000000E+00               0
GRID*                458               04.6573307048E-018.4696732808E+00+
*       1.0000000000E+00               0
GRID*                459               01.3915831476E+008.3675424758E+00+
*       1.0000000000E+00               0
GRID*                460               05.5556723877E+006.4098963798E+00+
*       1.0000000000E+00               0
GRID*                461               04.8193625893E+006.9804022650E+00+
*       1.0000000000E+00               0
GRID*                462               04.0249385592E+007.4667350122E+00+
*       1.0000000000E+00               0
GRID*                463               01.0168239773E+006.4199737613E+00+
*       1.0000000000E+00               0
GRID*                464               02.0086102456E+006.1818665128E+00+
*       1.0000000000E+00               0
GRID*                465               02.9509379172E+005.7915417005E+00+
*       1.0000000000E+00               0
GRID*                466               03.8206040394E+005.2586102942E+00+
*       1.0000000000E+00               0
GRID*                467               04.5961942673E+004.5961942673E+00+
*       1.0000000000E+00               0
GRID*                468               05.2586102942E+003.8206040394E+00+
*       1.0000000000E+00               0
GRID*                469               05.7915417005E+002.9509379172E+00+
*       1.0000000000E+00               0
GRID*                470               06.1818665128E+002.0086102456E+00+
*       1.0000000000E+00               0
GRID*                471               06.4199737613E+001.0168239773E+00+
*       1.0000000000E+00               0
GRID*                472               06.0052161812E+002.4874420307E+00+
*       1.0000000000E+00               0
GRID*                473               06.3204036597E+001.5173947078E+00+
*       1.0000000000E+00               0
GRID*                474               06.4799625095E+005.0998412125E-01+
*       1.0000000000E+00               0
GRID*                475               05.5421605309E+003.3962403704E+00+
*       1.0000000000E+00               0
GRID*                476               04.2214124080E+004.9426388703E+00+
*       1.0000000000E+00               0
GRID*                477               04.9426388703E+004.2214124080E+00+
*       1.0000000000E+00               0
GRID*                478               01.5173947078E+006.3204036597E+00+
*       1.0000000000E+00               0
GRID*                479               05.0998412125E-016.4799625095E+00+
*       1.0000000000E+00               0
GRID*                480               02.4874420307E+006.0052161812E+00+
*       1.0000000000E+00               0
GRID*                481               03.3962403704E+005.5421605309E+00+
*       1.0000000000E+00               0
GRID*                482               07.4912343025E+000.0000000000E+00+
*       1.0000000000E+00               0
GRID*                483               07.9868514538E+000.0000000000E+00+
*       1.0000000000E+00               0
GRID*                484               06.9956171513E+000.0000000000E+00+
*       1.0000000000E+00               0
GRID*                485               06.6404454059E+006.6168226352E+00+
*       1.0000000000E+00               0
GRID*                486               07.3487177355E+007.1152700678E+00+
*       1.0000000000E+00               0
GRID*                487               08.0086732549E+007.5797144919E+00+
*       1.0000000000E+00               0
GRID*                488               08.6257501390E+008.0139830292E+00+
*       1.0000000000E+00               0
GRID*                489               08.9222348107E+008.2226344437E+00+
*       1.0000000000E+00               0
GRID*                490               06.9945815707E+006.8660463515E+00+
*       1.0000000000E+00               0
GRID*                491               07.6786954893E+007.3474922883E+00+
*       1.0000000000E+00               0
GRID*                492               08.3172116969E+007.7968487605E+00+
*       1.0000000000E+00               0
GRID*                493               06.2698377046E+006.3560070570E+00+
*       1.0000000000E+00               0
GRID*                494               08.5271333042E+006.0009774568E+00+
*       1.0000000000E+00               0
GRID*                495               07.7691424641E+005.4675406841E+00+
*       1.0000000000E+00               0
GRID*                496               07.3530029419E+005.1746821139E+00+
*       1.0000000000E+00               0
GRID*                497               08.1481378839E+005.7342590708E+00+
*       1.0000000000E+00               0
GRID*                498               08.8729263912E+006.2443296642E+00+
*       1.0000000000E+00               0
GRID*                499               08.4187493203E+001.0377495601E+00+
*       1.0000000000E+00               0
GRID*                500               08.2285505484E+002.0599083840E+00+
*       1.0000000000E+00               0
GRID*                501               07.9147290884E+003.0511199376E+00+
*       1.0000000000E+00               0
GRID*                502               07.4819993286E+003.9964924513E+00+
*       1.0000000000E+00               0
GRID*                503               07.2230087136E+004.4475181197E+00+
*       1.0000000000E+00               0
GRID*                504               07.7128620531E+003.5304423756E+00+
*       1.0000000000E+00               0
GRID*                505               08.3393253610E+001.5517457692E+00+
*       1.0000000000E+00               0
GRID*                506               08.0868415702E+002.5603270943E+00+
*       1.0000000000E+00               0
GRID*                507               08.4665237428E+005.1985198556E-01+
*       1.0000000000E+00               0
GRID*                508               09.6093597412E+006.4876818657E+00+
*       1.0000000000E+00               0
GRID*                509               09.6093597412E+008.4312858582E+00+
*       1.0000000000E+00               0
GRID*                510               01.0000000000E+017.1355498632E+00+
*       1.0000000000E+00               0
GRID*                511               01.0000000000E+017.7834178607E+00+
*       1.0000000000E+00               0
GRID*                512               01.0000000000E+017.4594838619E+00+
*       1.0000000000E+00               0
GRID*                513               01.0000000000E+018.1073518594E+00+
*       1.0000000000E+00               0
GRID*                514               01.0000000000E+016.8116158644E+00+
*       1.0000000000E+00               0
GRID*                159               04.8816247036E+005.6771158200E+00+
*       1.0000000000E+00               0
GRID*                160               06.7832271678E+005.7360262428E+00+
*       1.0000000000E+00               0
GRID*                161               09.2452480837E+007.4778838647E+00+
*       1.0000000000E+00               0
GRID*                162               07.5694952679E+006.3181306612E+00+
*       1.0000000000E+00               0
GRID*                163               08.3709140850E+006.9878812615E+00+
*       1.0000000000E+00               0
GRID*                164               06.3546688620E+003.9426751367E+00+
*       1.0000000000E+00               0
GRID*                165               06.8388797340E+003.0553305949E+00+
*       1.0000000000E+00               0
GRID*                166               07.2920036707E+001.5284270845E+00+
*       1.0000000000E+00               0
GRID*                167               07.3109431883E+002.3478634246E+00+
*       1.0000000000E+00               0
GRID*                168               07.1889042431E+007.1366347601E-01+
*       1.0000000000E+00               0
GRID*                169               05.8177347307E+004.9650173913E+00+
*       1.0000000000E+00               0
GRID*                170               02.8590392182E+006.8917926124E+00+
*       1.0000000000E+00               0
GRID*                171               01.9032932255E+007.2021897606E+00+
*       1.0000000000E+00               0
GRID*                172               09.4980114149E-017.3937294067E+00+
*       1.0000000000E+00               0
GRID*                173               03.9559752312E+006.4496262444E+00+
*       1.0000000000E+00               0
GRID*                174               09.6226240418E+007.6306508627E+00+
*       1.0000000000E+00               0
GRID*                175               09.6226240418E+007.3067168639E+00+
*       1.0000000000E+00               0
GRID*                176               09.2319837830E+007.9545848614E+00+
*       1.0000000000E+00               0
GRID*                177               08.9354991113E+007.7459334469E+00+
*       1.0000000000E+00               0
GRID*                178               09.6093597412E+008.1073518594E+00+
*       1.0000000000E+00               0
GRID*                179               07.2761848146E+005.6017834654E+00+
*       1.0000000000E+00               0
GRID*                180               06.8600452951E+005.3089248912E+00+
*       1.0000000000E+00               0
GRID*                181               07.1049703369E+006.4674766482E+00+
*       1.0000000000E+00               0
GRID*                182               07.4591065017E+006.7167003645E+00+
*       1.0000000000E+00               0
GRID*                183               07.1763612179E+006.0270784520E+00+
*       1.0000000000E+00               0
GRID*                184               07.6693188646E+005.8928356746E+00+
*       1.0000000000E+00               0
GRID*                185               06.7118362869E+006.1764244390E+00+
*       1.0000000000E+00               0
GRID*                186               08.0483142879E+006.1595540564E+00+
*       1.0000000000E+00               0
GRID*                187               09.6093597412E+006.8116158644E+00+
*       1.0000000000E+00               0
GRID*                188               09.2319837830E+006.9827828652E+00+
*       1.0000000000E+00               0
GRID*                189               08.4490236964E+006.4944293566E+00+
*       1.0000000000E+00               0
GRID*                190               08.7948167837E+006.7377815636E+00+
*       1.0000000000E+00               0
GRID*                191               07.9702046765E+006.6530059613E+00+
*       1.0000000000E+00               0
GRID*                192               07.8598159103E+007.0515756646E+00+
*       1.0000000000E+00               0
GRID*                193               08.1897936700E+007.2837978767E+00+
*       1.0000000000E+00               0
GRID*                194               08.8080810843E+007.2328825631E+00+
*       1.0000000000E+00               0
GRID*                195               08.4983321120E+007.5009321453E+00+
*       1.0000000000E+00               0
GRID*                196               06.3152107124E+003.0031342537E+00+
*       1.0000000000E+00               0
GRID*                197               06.5103731163E+002.5319704172E+00+
*       1.0000000000E+00               0
GRID*                198               06.0731052764E+003.4468065245E+00+
*       1.0000000000E+00               0
GRID*                199               06.5967742980E+003.4990028658E+00+
*       1.0000000000E+00               0
GRID*                200               06.9183341048E+003.9695837989E+00+
*       1.0000000000E+00               0
GRID*                201               06.6457661422E+004.4122493382E+00+
*       1.0000000000E+00               0
GRID*                202               07.1604395408E+003.5259115280E+00+
*       1.0000000000E+00               0
GRID*                203               07.3768044192E+003.0532252693E+00+
*       1.0000000000E+00               0
GRID*                204               07.7602771161E+001.7941677357E+00+
*       1.0000000000E+00               0
GRID*                205               07.8553765094E+001.2830883241E+00+
*       1.0000000000E+00               0
GRID*                206               06.7464048435E+002.1782368320E+00+
*       1.0000000000E+00               0
GRID*                207               07.3014734295E+001.9381452545E+00+
*       1.0000000000E+00               0
GRID*                208               06.7369350847E+001.7685186620E+00+
*       1.0000000000E+00               0
GRID*                209               07.0749114612E+002.7015970098E+00+
*       1.0000000000E+00               0
GRID*                210               07.7697468749E+002.2038859057E+00+
*       1.0000000000E+00               0
GRID*                211               07.6128361463E+002.6994916841E+00+
*       1.0000000000E+00               0
GRID*                212               06.8559887188E+001.2726255314E+00+
*       1.0000000000E+00               0
GRID*                213               07.9549918253E+005.1887478188E-01+
*       1.0000000000E+00               0
GRID*                214               07.8038267956E+008.7570651989E-01+
*       1.0000000000E+00               0
GRID*                215               07.2404539569E+001.1210452803E+00+
*       1.0000000000E+00               0
GRID*                216               07.3400692728E+003.5683173801E-01+
*       1.0000000000E+00               0
GRID*                217               06.8044390050E+008.6524372718E-01+
*       1.0000000000E+00               0
GRID*                218               06.8444521215E+003.5683173801E-01+
*       1.0000000000E+00               0
GRID*                219               05.8066395849E+003.8816395928E+00+
*       1.0000000000E+00               0
GRID*                220               04.7389094854E+005.1366550436E+00+
*       1.0000000000E+00               0
GRID*                221               04.3511143762E+005.4678630639E+00+
*       1.0000000000E+00               0
GRID*                222               06.3412285856E+005.9156088607E+00+
*       1.0000000000E+00               0
GRID*                223               05.2069644990E+004.7806058293E+00+
*       1.0000000000E+00               0
GRID*                224               05.3496797172E+005.3210666056E+00+
*       1.0000000000E+00               0
GRID*                225               05.5381725193E+004.3928107201E+00+
*       1.0000000000E+00               0
GRID*                226               06.0862017963E+004.4538462640E+00+
*       1.0000000000E+00               0
GRID*                227               06.3772990766E+004.9234204655E+00+
*       1.0000000000E+00               0
GRID*                228               05.8584823670E+005.5301044350E+00+
*       1.0000000000E+00               0
GRID*                229               05.3904273535E+005.8861536494E+00+
*       1.0000000000E+00               0
GRID*                230               06.3004809493E+005.3505218170E+00+
*       1.0000000000E+00               0
GRID*                231               02.8022486384E+007.4588354302E+00+
*       1.0000000000E+00               0
GRID*                232               02.3811662219E+007.0469911865E+00+
*       1.0000000000E+00               0
GRID*                233               02.3243756420E+007.6140340042E+00+
*       1.0000000000E+00               0
GRID*                234               03.2339713257E+007.2841277156E+00+
*       1.0000000000E+00               0
GRID*                235               01.9559517325E+006.6920281296E+00+
*       1.0000000000E+00               0
GRID*                236               01.4600586019E+006.8110817638E+00+
*       1.0000000000E+00               0
GRID*                237               02.4338247289E+006.5368295555E+00+
*       1.0000000000E+00               0
GRID*                238               01.8761001304E+007.7403524212E+00+
*       1.0000000000E+00               0
GRID*                239               04.6503050314E-017.9612800378E+00+
*       1.0000000000E+00               0
GRID*                240               09.8331255992E-016.9068515869E+00+
*       1.0000000000E+00               0
GRID*                241               01.4265471835E+007.2979595836E+00+
*       1.0000000000E+00               0
GRID*                242               04.7490057074E-016.9468647034E+00+
*       1.0000000000E+00               0
GRID*                243               04.7490057074E-017.4424818546E+00+
*       1.0000000000E+00               0
GRID*                244               01.3993540884E+007.8361222443E+00+
*       1.0000000000E+00               0
GRID*                245               09.3993107389E-017.9125275899E+00+
*       1.0000000000E+00               0
GRID*                246               02.9049885653E+006.3416671516E+00+
*       1.0000000000E+00               0
GRID*                247               05.0384894230E+006.1911896565E+00+
*       1.0000000000E+00               0
GRID*                248               04.4187999674E+006.0633710322E+00+
*       1.0000000000E+00               0
GRID*                249               04.5756646868E+006.5774448687E+00+
*       1.0000000000E+00               0
GRID*                250               03.8882896400E+005.8541182761E+00+
*       1.0000000000E+00               0
GRID*                251               03.4534565718E+006.1205839676E+00+
*       1.0000000000E+00               0
GRID*                252               03.4075072247E+006.6707094284E+00+
*       1.0000000000E+00               0
GRID*                253               04.1924033134E+006.8420540134E+00+
*       1.0000000000E+00               0
GRID*                254               03.7824393322E+007.0630445316E+00+
*       1.0000000000E+00               0
GRID*                604               09.9368340365E-158.4824686050E+00+
*       2.0000000000E+00               0
GRID*                605               05.8992300034E+006.0951914787E+00+
*       2.0000000000E+00               0
GRID*                608               09.2187194824E+008.4312858582E+00+
*       2.0000000000E+00               0
GRID*                583               00.0000000000E+006.5000000000E+00+
*       1.5000000000E+00               0
GRID*                584               09.9368340365E-158.4824686050E+00+
*       1.5000000000E+00               0
GRID*                585               05.8992300034E+006.0951914787E+00+
*       1.5000000000E+00               0
GRID*                586               06.5000000000E+000.0000000000E+00+
*       1.5000000000E+00               0
GRID*                587               06.9368634224E+004.8818235397E+00+
*       1.5000000000E+00               0
GRID*                588               08.4824686050E+000.0000000000E+00+
*       1.5000000000E+00               0
GRID*                590               09.2187194824E+006.4876818657E+00+
*       1.5000000000E+00               0
GRID*                589               09.2187194824E+008.4312858582E+00+
*       1.5000000000E+00               0
GRID*                591               01.0000000000E+016.4876818657E+00+
*       1.5000000000E+00               0
GRID*                592               01.0000000000E+018.4312858582E+00+
*       1.5000000000E+00               0
GRID*                271               06.4799626469E+005.0998097224E-01+
*       1.5000010913E+00               0
GRID*                272               06.4199750526E+001.0168141652E+00+
*       1.5000034202E+00               0
GRID*                273               06.3204070579E+001.5173794047E+00+
*       1.5000054123E+00               0
GRID*                274               06.1818709695E+002.0085960334E+00+
*       1.5000051449E+00               0
GRID*                275               06.0052161793E+002.4874420307E+00+
*       1.5000000000E+00               0
GRID*                276               05.7915348112E+002.9509511293E+00+
*       1.4999948550E+00               0
GRID*                277               04.9426367408E+004.2214147312E+00+
*       1.4999989086E+00               0
GRID*                278               05.2586042699E+003.8206118942E+00+
*       1.4999965799E+00               0
GRID*                279               04.5961942673E+004.5961942673E+00+
*       1.5000000000E+00               0
GRID*                280               05.5421521168E+003.3962535987E+00+
*       1.4999945878E+00               0
GRID*                281               04.2214147312E+004.9426367408E+00+
*       1.5000010914E+00               0
GRID*                282               03.8206118942E+005.2586042699E+00+
*       1.5000034201E+00               0
GRID*                283               03.3962535987E+005.5421521168E+00+
*       1.5000054122E+00               0
GRID*                284               02.9509511293E+005.7915348112E+00+
*       1.5000051450E+00               0
GRID*                285               02.4874420307E+006.0052161793E+00+
*       1.5000000000E+00               0
GRID*                286               02.0085960334E+006.1818709695E+00+
*       1.4999948551E+00               0
GRID*                287               05.0998097224E-016.4799626469E+00+
*       1.4999989087E+00               0
GRID*                288               01.0168141652E+006.4199750526E+00+
*       1.4999965798E+00               0
GRID*                289               01.5173794047E+006.3204070579E+00+
*       1.4999945877E+00               0
GRID*                258               05.5556821044E+006.4098876570E+00+
*       1.5000046052E+00               0
GRID*                259               05.1953455580E+006.7052700581E+00+
*       1.4999961905E+00               0
GRID*                260               04.8193583460E+006.9804050294E+00+
*       1.4999982127E+00               0
GRID*                261               03.6088915178E+007.6764681883E+00+
*       1.4999953947E+00               0
GRID*                262               03.1819808863E+007.8630322291E+00+
*       1.5000000000E+00               0
GRID*                263               04.0249480595E+007.4667298390E+00+
*       1.5000038095E+00               0
GRID*                264               04.4288356295E+007.2344790109E+00+
*       1.5000017873E+00               0
GRID*                265               02.7454703682E+008.0258738309E+00+
*       1.5000046053E+00               0
GRID*                266               02.3006423903E+008.1645147299E+00+
*       1.4999961903E+00               0
GRID*                267               01.8489020608E+008.2785160396E+00+
*       1.4999982128E+00               0
GRID*                268               01.3915881142E+008.3675415054E+00+
*       1.5000017872E+00               0
GRID*                269               04.6572002990E-018.4696737451E+00+
*       1.4999953947E+00               0
GRID*                270               09.3007171923E-018.4313244637E+00+
*       1.5000038096E+00               0
GRID*                419               08.4665240616E+005.1984350927E-01+
*       1.5000029922E+00               0
GRID*                420               08.4187507831E+001.0377368704E+00+
*       1.5000045011E+00               0
GRID*                421               08.3393229085E+001.5517582967E+00+
*       1.4999954989E+00               0
GRID*                422               08.2285483201E+002.0599165829E+00+
*       1.4999970077E+00               0
GRID*                423               08.0868415702E+002.5603270943E+00+
*       1.5000000000E+00               0
GRID*                424               07.9147319768E+003.0511119504E+00+
*       1.5000029922E+00               0
GRID*                425               07.2230040959E+004.4475252348E+00+
*       1.4999970077E+00               0
GRID*                426               07.4819932242E+003.9965036738E+00+
*       1.4999954989E+00               0
GRID*                427               07.7128672648E+003.5304307196E+00+
*       1.5000045012E+00               0
GRID*                389               08.2941262631E+007.7806024202E+00+
*       1.5000446176E+00               0
GRID*                390               08.7841105023E+008.1254293673E+00+
*       1.5000083136E+00               0
GRID*                391               07.6908931836E+007.3560764285E+00+
*       1.5000259316E+00               0
GRID*                392               07.1494118426E+006.9750082890E+00+
*       1.5000081108E+00               0
GRID*                393               08.4599381825E+007.8972927486E+00+
*       1.2500223089E+00               0
GRID*                394               08.1513997449E+007.6801584736E+00+
*       1.2500223095E+00               0
GRID*                395               09.0014149883E+008.2783576178E+00+
*       1.2500041567E+00               0
GRID*                396               09.0014149886E+008.2783576185E+00+
*       1.7500041570E+00               0
GRID*                397               08.7049303041E+008.0697062196E+00+
*       1.2500041565E+00               0
GRID*                398               08.5391183799E+007.9530158985E+00+
*       1.5000264656E+00               0
GRID*                399               08.7049303058E+008.0697062219E+00+
*       1.7500041573E+00               0
GRID*                400               08.4599381856E+007.8972927505E+00+
*       1.7500223096E+00               0
GRID*                401               08.1513997494E+007.6801584726E+00+
*       1.7500223096E+00               0
GRID*                402               07.9925097215E+007.5683394264E+00+
*       1.5000352743E+00               0
GRID*                403               07.8497832110E+007.4678954757E+00+
*       1.7500129664E+00               0
GRID*                404               07.8497832061E+007.4678954780E+00+
*       1.2500129663E+00               0
GRID*                405               07.5198054618E+007.2356732426E+00+
*       1.2500129659E+00               0
GRID*                406               06.8949286446E+006.7959154340E+00+
*       1.7500040546E+00               0
GRID*                407               07.2490647976E+007.0451391680E+00+
*       1.7500040547E+00               0
GRID*                408               06.2698377262E+006.3560070189E+00+
*       1.5000000001E+00               0
GRID*                409               06.6404454332E+006.6168225896E+00+
*       1.5000000004E+00               0
GRID*                410               06.8949286403E+006.7959154345E+00+
*       1.2500040544E+00               0
GRID*                411               07.2490647927E+007.0451391703E+00+
*       1.2500040546E+00               0
GRID*                412               07.4201525135E+007.1655423590E+00+
*       1.5000170215E+00               0
GRID*                413               07.5198054668E+007.2356732399E+00+
*       1.7500129660E+00               0
GRID*                414               08.8729263939E+006.2443296657E+00+
*       1.5000000001E+00               0
GRID*                415               08.5271333059E+006.0009774571E+00+
*       1.5000000006E+00               0
GRID*                416               08.1481378841E+005.7342590705E+00+
*       1.5000000004E+00               0
GRID*                417               07.7691424630E+005.4675406844E+00+
*       1.4999999992E+00               0
GRID*                418               07.3530029434E+005.1746821067E+00+
*       1.4999999998E+00               0
GRID*                255               02.4842083926E-156.9956171513E+00+
*       1.5000000000E+00               0
GRID*                256               04.9684170183E-157.4912343025E+00+
*       1.5000000000E+00               0
GRID*                257               07.4526256439E-157.9868514538E+00+
*       1.5000000000E+00               0
GRID*                386               07.9868514538E+000.0000000000E+00+
*       1.5000000000E+00               0
GRID*                387               07.4912343025E+000.0000000000E+00+
*       1.5000000000E+00               0
GRID*                388               06.9956171513E+000.0000000000E+00+
*       1.5000000000E+00               0
GRID*                430               01.0000000000E+017.4594838619E+00+
*       1.5000000000E+00               0
GRID*                431               01.0000000000E+017.9640053249E+00+
*       1.5001286113E+00               0
GRID*                432               01.0000000000E+016.9549623989E+00+
*       1.4998713887E+00               0
GRID*                433               01.0000000000E+017.6214508613E+00+
*       1.7500000000E+00               0
GRID*                434               01.0000000000E+017.2975168626E+00+
*       1.7500000000E+00               0
GRID*                435               01.0000000000E+018.1976455915E+00+
*       1.7500643056E+00               0
GRID*                436               01.0000000000E+018.1976455915E+00+
*       1.2500643056E+00               0
GRID*                437               01.0000000000E+017.8737115928E+00+
*       1.7500643056E+00               0
GRID*                438               01.0000000000E+017.8737115928E+00+
*       1.2500643056E+00               0
GRID*                439               01.0000000000E+017.7117445934E+00+
*       1.5000643056E+00               0
GRID*                440               01.0000000000E+017.6214508613E+00+
*       1.2500000000E+00               0
GRID*                441               01.0000000000E+017.2975168626E+00+
*       1.2500000000E+00               0
GRID*                442               01.0000000000E+016.7213221323E+00+
*       1.2499356944E+00               0
GRID*                443               01.0000000000E+016.7213221323E+00+
*       1.7499356944E+00               0
GRID*                444               01.0000000000E+017.0452561310E+00+
*       1.2499356944E+00               0
GRID*                445               01.0000000000E+017.0452561310E+00+
*       1.7499356944E+00               0
GRID*                446               01.0000000000E+017.2072231304E+00+
*       1.4999356944E+00               0
GRID*                429               09.6093597412E+008.4312858582E+00+
*       1.5000000000E+00               0
GRID*                428               09.6093597412E+006.4876818657E+00+
*       1.5000000000E+00               0
GRID*                  1               07.6370645561E+005.1452863352E-01+
*       1.6045546260E+00               0
GRID*                  2               04.3926369024E+006.6656715267E+00+
*       1.4561999912E+00               0
GRID*                  3               06.8681320923E+001.9986961973E+00+
*       1.4961764233E+00               0
GRID*                  4               08.2577410696E-017.9620492897E+00+
*       1.5092369595E+00               0
GRID*                  5               05.8261361778E+004.3702396074E+00+
*       1.4771967609E+00               0
GRID*                  6               05.6822722204E+005.6987437542E+00+
*       1.5374441649E+00               0
GRID*                  7               08.0279069382E+007.7613909681E-01+
*       1.3022773130E+00               0
GRID*                  8               07.5641494293E+002.5726431676E-01+
*       1.3022773130E+00               0
GRID*                  9               08.0597665806E+002.5726431676E-01+
*       1.3022773130E+00               0
GRID*                 10               04.0007701652E+007.1710671667E+00+
*       1.7280999956E+00               0
GRID*                 11               04.4107341464E+006.9500766504E+00+
*       1.7280999956E+00               0
GRID*                 12               04.1743090678E+006.5576495044E+00+
*       1.7280999956E+00               0
GRID*                 13               07.7697470883E+002.2038858681E+00+
*       1.5000000000E+00               0
GRID*                 14               07.6128363583E+002.6994916449E+00+
*       1.5000000000E+00               0
GRID*                 15               07.3109434083E+002.3478633884E+00+
*       1.5000000000E+00               0
GRID*                 16               07.8553764955E+001.2830883223E+00+
*       1.5000000000E+00               0
GRID*                 17               07.7602771095E+001.7941677343E+00+
*       1.5000000000E+00               0
GRID*                 18               07.2920031322E+001.5284264985E+00+
*       1.5000000000E+00               0
GRID*                 19               08.0279069382E+007.7613909681E-01+
*       1.8022773130E+00               0
GRID*                 20               07.4645335749E+001.0214772730E+00+
*       1.8022773130E+00               0
GRID*                 21               07.4645341134E+001.0214778590E+00+
*       1.3022773130E+00               0
GRID*                 22               07.3014736494E+001.9381452183E+00+
*       1.5000000000E+00               0
GRID*                 23               03.4534565742E+006.1205839724E+00+
*       1.5000000000E+00               0
GRID*                 24               02.9049885677E+006.3416671564E+00+
*       1.5000000000E+00               0
GRID*                 25               03.4075049724E+006.6707095861E+00+
*       1.5000000000E+00               0
GRID*                 26               02.8590369659E+006.8917927701E+00+
*       1.5000000000E+00               0
GRID*                 27               04.7389094854E+005.1366550436E+00+
*       1.5000000000E+00               0
GRID*                 28               04.3511143715E+005.4678630571E+00+
*       1.5000000000E+00               0
GRID*                 29               04.8816296323E+005.6771202391E+00+
*       1.5000000000E+00               0
GRID*                 30               03.8882896353E+005.8541182693E+00+
*       1.5000000000E+00               0
GRID*                 31               07.4129843996E+006.1409605477E-01+
*       1.3022773130E+00               0
GRID*                 32               03.2339713231E+007.2841277096E+00+
*       1.5000000000E+00               0
GRID*                 33               03.7824393296E+007.0630445255E+00+
*       1.5000000000E+00               0
GRID*                 34               03.9559782322E+006.4496268632E+00+
*       1.5000000000E+00               0
GRID*                 35               02.4338224796E+006.5368297203E+00+
*       1.5000000000E+00               0
GRID*                 36               06.6457685396E+004.4122513435E+00+
*       1.5000000000E+00               0
GRID*                 37               06.9183364927E+003.9695857993E+00+
*       1.5000000000E+00               0
GRID*                 38               06.5103731234E+002.5319704203E+00+
*       1.5000000000E+00               0
GRID*                 39               06.8388810847E+003.0553311511E+00+
*       1.5000000000E+00               0
GRID*                 40               06.5249993026E+002.0036532215E+00+
*       1.7480882117E+00               0
GRID*                 41               06.8535059131E+002.5270133961E+00+
*       1.2480882117E+00               0
GRID*                 42               06.8535072638E+002.5270139523E+00+
*       1.7480882117E+00               0
GRID*                 43               07.3768057618E+003.0532258225E+00+
*       1.5000000000E+00               0
GRID*                 44               07.1604408820E+003.5259120793E+00+
*       1.5000000000E+00               0
GRID*                 45               04.7490047634E-016.9468646622E+00+
*       1.5000000000E+00               0
GRID*                 46               09.8331255937E-016.9068515840E+00+
*       1.5000000000E+00               0
GRID*                 47               04.7490047634E-017.4424818134E+00+
*       1.5000000000E+00               0
GRID*                 48               04.1288705348E-017.7266417961E+00+
*       1.2546184798E+00               0
GRID*                 49               04.1288705348E-017.7266417961E+00+
*       1.7546184798E+00               0
GRID*                 50               08.8778752982E-017.6778893070E+00+
*       1.7546184798E+00               0
GRID*                 51               08.7791755378E-018.1966875126E+00+
*       1.7546184798E+00               0
GRID*                 52               01.3993540866E+007.8361222381E+00+
*       1.5000000000E+00               0
GRID*                 53               01.3373405694E+008.1202821796E+00+
*       1.2546184798E+00               0
GRID*                 54               08.8778762422E-017.6778893482E+00+
*       1.2546184798E+00               0
GRID*                 55               01.3373405694E+008.1202821796E+00+
*       1.7546184798E+00               0
GRID*                 56               06.3152107172E+003.0031342560E+00+
*       1.5000000000E+00               0
GRID*                 57               06.5249993026E+002.0036532215E+00+
*       1.2480882117E+00               0
GRID*                 58               05.0384943508E+006.1911940747E+00+
*       1.5000000000E+00               0
GRID*                 59               04.4188048961E+006.0633754513E+00+
*       1.5000000000E+00               0
GRID*                 60               06.0731052812E+003.4468065269E+00+
*       1.5000000000E+00               0
GRID*                 61               01.4265467784E+007.2979595323E+00+
*       1.5000000000E+00               0
GRID*                 62               09.4980104709E-017.3937293655E+00+
*       1.5000000000E+00               0
GRID*                 63               04.1288705348E-018.2222589474E+00+
*       1.7546184798E+00               0
GRID*                 64               07.1889041087E+007.1366329037E-01+
*       1.5000000000E+00               0
GRID*                 65               06.8444519872E+003.5683155236E-01+
*       1.5000000000E+00               0
GRID*                 66               07.0685322781E+002.5726431676E-01+
*       1.3022773130E+00               0
GRID*                 67               07.4129842652E+006.1409586912E-01+
*       1.8022773130E+00               0
GRID*                 68               04.7939955215E+006.6854675089E+00+
*       1.7280999956E+00               0
GRID*                 69               04.6371357317E+006.1713980925E+00+
*       1.7280999956E+00               0
GRID*                 70               06.3412285856E+005.9156088607E+00+
*       1.5000000000E+00               0
GRID*                 71               06.7832296470E+005.7360283854E+00+
*       1.5000000000E+00               0
GRID*                 72               06.3004805545E+005.3505215089E+00+
*       1.5000000000E+00               0
GRID*                 73               05.2069644990E+004.7806058293E+00+
*       1.5000000000E+00               0
GRID*                 74               05.5423732360E+004.0954218234E+00+
*       1.7385983804E+00               0
GRID*                 75               05.8219350595E+004.6676281912E+00+
*       1.7385983804E+00               0
GRID*                 76               06.0904049173E+004.1564593774E+00+
*       1.7385983804E+00               0
GRID*                 77               05.3496793224E+005.3210662975E+00+
*       1.5000000000E+00               0
GRID*                 78               05.4388131805E+006.2020036226E+00+
*       1.2687220824E+00               0
GRID*                 79               05.7907511119E+005.8969676164E+00+
*       1.7687220824E+00               0
GRID*                 80               05.2819533908E+005.6879342062E+00+
*       1.7687220824E+00               0
GRID*                 81               06.5967756487E+003.4990034220E+00+
*       1.5000000000E+00               0
GRID*                 82               05.8066395781E+003.8816395880E+00+
*       1.5000000000E+00               0
GRID*                 83               07.0749128118E+002.7015975659E+00+
*       1.5000000000E+00               0
GRID*                 84               07.0895376403E+002.1732798110E+00+
*       1.2480882117E+00               0
GRID*                 85               07.0895378603E+002.1732797748E+00+
*       1.7480882117E+00               0
GRID*                 86               06.3546712594E+003.9426771420E+00+
*       1.5000000000E+00               0
GRID*                 87               06.3814998001E+004.6260315736E+00+
*       1.2385983804E+00               0
GRID*                 88               06.3814998001E+004.6260315736E+00+
*       1.7385983804E+00               0
GRID*                 89               05.2819484620E+005.6879297871E+00+
*       1.2687220824E+00               0
GRID*                 90               05.7500030808E+005.3318802646E+00+
*       1.7687220824E+00               0
GRID*                 91               06.8600452951E+005.3089248912E+00+
*       1.5000000000E+00               0
GRID*                 92               06.3772990766E+004.9234204655E+00+
*       1.5000000000E+00               0
GRID*                 93               05.8177343360E+004.9650170831E+00+
*       1.5000000000E+00               0
GRID*                 94               05.2111652225E+004.4832169374E+00+
*       1.7385983804E+00               0
GRID*                 95               05.8219354543E+004.6676284994E+00+
*       1.2385983804E+00               0
GRID*                 96               04.7939955215E+006.6854675089E+00+
*       1.2280999956E+00               0
GRID*                 97               04.1743060668E+006.5576488856E+00+
*       1.2280999956E+00               0
GRID*                 98               06.6440529268E+001.5077600873E+00+
*       1.2480882117E+00               0
GRID*                 99               08.7791755378E-018.1966875126E+00+
*       1.2546184798E+00               0
GRID*                100               01.4600581963E+006.8110817096E+00+
*       1.5000000000E+00               0
GRID*                101               01.9559513304E+006.6920280854E+00+
*       1.5000000000E+00               0
GRID*                102               02.3811639695E+007.0469913442E+00+
*       1.5000000000E+00               0
GRID*                103               01.9032928204E+007.2021897092E+00+
*       1.5000000000E+00               0
GRID*                104               01.8761001286E+007.7403524150E+00+
*       1.5000000000E+00               0
GRID*                105               02.8022486362E+007.4588354220E+00+
*       1.5000000000E+00               0
GRID*                106               08.3325201741E+007.3842418408E+00+
*       1.2500223088E+00               0
GRID*                107               07.9702069844E+006.6530060370E+00+
*       1.5000000000E+00               0
GRID*                108               08.0483165940E+006.1595541347E+00+
*       1.5000000000E+00               0
GRID*                109               08.4490249499E+006.4944293543E+00+
*       1.5000000000E+00               0
GRID*                110               08.3709153403E+006.9878812567E+00+
*       1.5000000000E+00               0
GRID*                111               08.3325214293E+007.3842418360E+00+
*       1.7500223088E+00               0
GRID*                112               08.0309036343E+007.1719788450E+00+
*       1.2500129658E+00               0
GRID*                113               08.0309048896E+007.1719788401E+00+
*       1.7500129658E+00               0
GRID*                114               07.6301965337E+006.8371036205E+00+
*       1.7500129658E+00               0
GRID*                115               07.6301942258E+006.8371035448E+00+
*       1.2500129658E+00               0
GRID*                116               06.8044390022E+008.6524372664E-01+
*       1.5000000000E+00               0
GRID*                117               06.8559881775E+001.2726249448E+00+
*       1.5000000000E+00               0
GRID*                118               07.2404534184E+001.1210446942E+00+
*       1.5000000000E+00               0
GRID*                119               09.2452468672E+007.4778845761E+00+
*       1.5000000000E+00               0
GRID*                120               09.6226228254E+007.4686845747E+00+
*       1.7500000000E+00               0
GRID*                121               09.6226240418E+007.4686838633E+00+
*       1.2500000000E+00               0
GRID*                122               09.6226240418E+007.7209445948E+00+
*       1.2500643056E+00               0
GRID*                123               09.6226228254E+007.7209453062E+00+
*       1.7500643056E+00               0
GRID*                124               07.0685322781E+002.5726431676E-01+
*       1.8022773130E+00               0
GRID*                125               02.3243756398E+007.6140339961E+00+
*       1.5000000000E+00               0
GRID*                126               04.4107341464E+006.9500766504E+00+
*       1.2280999956E+00               0
GRID*                127               04.0007701652E+007.1710671667E+00+
*       1.2280999956E+00               0
GRID*                128               08.7948180390E+006.7377815588E+00+
*       1.5000000000E+00               0
GRID*                129               09.2319825666E+006.9827835766E+00+
*       1.5000000000E+00               0
GRID*                130               08.8080798679E+007.2328832745E+00+
*       1.5000000000E+00               0
GRID*                131               09.6093597412E+006.7213221323E+00+
*       1.2499356944E+00               0
GRID*                132               09.6093597412E+006.7213221323E+00+
*       1.7499356944E+00               0
GRID*                133               08.0597665806E+002.5726431676E-01+
*       1.8022773130E+00               0
GRID*                134               07.5694975758E+006.3181307369E+00+
*       1.5000000000E+00               0
GRID*                135               07.6693211739E+005.8928357484E+00+
*       1.5000000000E+00               0
GRID*                136               09.6093597412E+008.1976455915E+00+
*       1.2500643056E+00               0
GRID*                137               09.6093597412E+008.1976455915E+00+
*       1.7500643056E+00               0
GRID*                138               08.7696859570E+007.6292438539E+00+
*       1.7500223088E+00               0
GRID*                139               07.1049703369E+006.4674766482E+00+
*       1.5000000000E+00               0
GRID*                140               06.7118387660E+006.1764265816E+00+
*       1.5000000000E+00               0
GRID*                141               07.1763636970E+006.0270805946E+00+
*       1.5000000000E+00               0
GRID*                142               07.3594535553E+006.6465694751E+00+
*       1.2500040554E+00               0
GRID*                143               09.6226228254E+007.2164238432E+00+
*       1.7499356944E+00               0
GRID*                144               09.3920552512E+008.0447173461E+00+
*       1.5000684625E+00               0
GRID*                145               06.0904025199E+004.1564573721E+00+
*       1.2385983804E+00               0
GRID*                146               07.2761872951E+005.6017856060E+00+
*       1.5000000000E+00               0
GRID*                147               07.0800678815E+001.7635616409E+00+
*       1.2480882117E+00               0
GRID*                148               09.6226240418E+007.2164231318E+00+
*       1.2499356944E+00               0
GRID*                149               05.7907511119E+005.8969676164E+00+
*       1.2687220824E+00               0
GRID*                150               06.2327496941E+005.7173849985E+00+
*       1.2687220824E+00               0
GRID*                151               05.5423732360E+004.0954218234E+00+
*       1.2385983804E+00               0
GRID*                152               08.7696871734E+007.6292431424E+00+
*       1.2500223088E+00               0
GRID*                153               09.0146792930E+007.8016566160E+00+
*       1.2500041568E+00               0
GRID*                154               07.3594558632E+006.6465695508E+00+
*       1.7500040554E+00               0
GRID*                155               09.0146780766E+007.8016573274E+00+
*       1.7500041568E+00               0
GRID*                156               07.5641494293E+002.5726431676E-01+
*       1.8022773130E+00               0
GRID*                157               05.7500034756E+005.3318805727E+00+
*       1.2687220824E+00               0
GRID*                158               07.0800673430E+001.7635610549E+00+
*       1.7480882117E+00               0
GRID*               1002               06.4719957749E-076.4719957749E-07+
*       1.0000000000E+00               0
GRID*               1003               06.4720000000E-076.4720000000E-07+
*       1.0000000000E+01               0
GRID*               1004               03.0000000000E-102.0000000000E+00+
*       1.0000000000E+01               0
GRID*               1005               03.0000000000E+002.0000000000E+00+
*       1.0000000000E+01               0
GRID*               1006               03.0000000006E+004.0000000000E+00+
*       1.0000000000E+01               0
$*
$* ELEMENT CARDS
$*
$*  Mesh Collector: solidus
$*  Mesh: 3d_mesh(1)
CTETRA         1       2     499     482     597       1     213     483+
+            507       7       8       9
CTETRA         2       2     521     522     298       2     526     351+
+            352      10      11      12
CTETRA         3       2     500     501     167     302     506     211+
+            210      13      14      15
CTETRA         4       2     500     570     569     166     421     573+
+            422     204      16      17
CTETRA         5       2     499     570     500     166     420     421+
+            505     205      16     204
CTETRA         6       2     570     301     166       1     362      18+
+             16      19      20      21
CTETRA         7       2     500     166     569     302     204      17+
+            422      13      22     367
CTETRA         8       2     537     173     170     295      23     252+
+             24     344      25      26
CTETRA         9       2     535     159     536     294      27      28+
+            545     343      29     342
CTETRA        10       2     465     537     536     173     284     546+
+            283     251      23      30
CTETRA        11       2     499     166     168       1     205     215+
+            214       7      21      31
CTETRA        12       2     452     521     170     173     261      32+
+            234     254      33     252
CTETRA        13       2     537     173     295     298      23      25+
+            344     349      34     350
CTETRA        14       2     465     536     466     173     283     282+
+            481     251      30     250
CTETRA        15       2     464     538     537     295     286     547+
+            285      35     329     344
CTETRA        16       2     600     502     610     299     503     425+
+            587      36      37     356
CTETRA        17       2     532     165     300       3      38      39+
+            358      40      41      42
CTETRA        18       2     500     569     501     302     422     423+
+            506      13     367      14
CTETRA        19       2     501     567     502     300     427     426+
+            504      43     355      44
CTETRA        20       2     593     603     539     297     583     548+
+            287      45     338     336
CTETRA        21       2     463     593     539     172     479     287+
+            288     240     242      46
CTETRA        22       2     447     515     297       4     256     339+
+             47      48      49      50
CTETRA        23       2     515     518     297       4     335     341+
+            339      49      51      50
CTETRA        24       2     454     172     519       4     244      52+
+            267      53      54      55
CTETRA        25       2     502     567     299     300     426     353+
+             37      44     355     354
CTETRA        26       2     470     533     532     165     275     542+
+            274     197      56      38
CTETRA        27       2     470     165     532       3     197      38+
+            274      57      41      40
CTETRA        28       2     450     173     159     294     249     248+
+            247      58      59      29
CTETRA        29       2     469     164     533     165     198      60+
+            276     196     199      56
CTETRA        30       2     539     296     172     297     328      61+
+             46     336     337      62
CTETRA        31       2     447     604     515       4     257     517+
+            256      48      63      49
CTETRA        32       2     593     172     447     297     242     243+
+            449      45      62      47
CTETRA        33       2     596     168     303       1     218      64+
+             65      66      31      67
CTETRA        34       2     523     294     298       2     346     345+
+            347      68      69      12
CTETRA        35       2     522     523     298       2     527     347+
+            351      11      68      12
CTETRA        36       2     466     536     159     173     282      28+
+            221     250      30     248
CTETRA        37       2     605     160     290     304      70      71+
+            385     383      72     384
CTETRA        38       2     454     519     518       4     267     529+
+            268      53      55      51
CTETRA        39       2     467     159     535     169     220      27+
+            279     223     224      73
CTETRA        40       2     534     304     299       5     379     380+
+            376      74      75      76
CTETRA        41       2     535     159     294     304      27      29+
+            343     377      77     378
CTETRA        42       2     482     168     596       1     216     218+
+            484       8      31      66
CTETRA        43       2     450     605     294       6     258     381+
+             58      78      79      80
CTETRA        44       2     521     295     173     298     332      25+
+             33     352     350      34
CTETRA        45       2     469     533     470     165     276     275+
+            472     196      56     197
CTETRA        46       2     533     165     164     300      56     199+
+             60     357      39      81
CTETRA        47       2     469     534     533     164     280     544+
+            276     198      82      60
CTETRA        48       2     167     302     300       3      15     364+
+             83      84      85      42
CTETRA        49       2     519     172     296     297      52      61+
+            334     340      62     337
CTETRA        50       2     533     164     534     299      60      82+
+            544     359      86     376
CTETRA        51       2     466     536     535     159     282     545+
+            281     221      28      27
CTETRA        52       2     600     299     610       5      36     356+
+            587      87      76      88
CTETRA        53       2     159     294     304       6      29     378+
+             77      89      80      90
CTETRA        54       2     465     170     537     173     246      24+
+            284     251     252      23
CTETRA        55       2     600     610     160     169     587      91+
+            180     227      92     230
CTETRA        56       2     499     168     482       1     214     216+
+            213       7      31       8
CTETRA        57       2     495     600     610     160     496     587+
+            418     179     180      91
CTETRA        58       2     535     169     304       5      73      93+
+            377      94      95      75
CTETRA        59       2     468     534     469     164     278     280+
+            475     219      82     198
CTETRA        60       2     464     537     170     295     285      24+
+            237      35     344      26
CTETRA        61       2     519     172     297       4      52      62+
+            340      55      54      50
CTETRA        62       2     450     173     294       2     249      59+
+             58      96      97      69
CTETRA        63       2     470     532     471       3     274     273+
+            473      57      40      98
CTETRA        64       2     593     447     515     297     449     256+
+            255      45      47     339
CTETRA        65       2     455     518     604       4     270     530+
+            269      99      51      63
CTETRA        66       2     463     538     464     296     289     286+
+            478     100     327     101
CTETRA        67       2     464     538     295     296     286     329+
+             35     101     327     330
CTETRA        68       2     463     539     538     296     288     549+
+            289     100     328     327
CTETRA        69       2     518     519     297       4     529     340+
+            341      51      55      50
CTETRA        70       2     464     295     171     296      35     102+
+            235     101     330     103
CTETRA        71       2     454     171     519     172     238     104+
+            267     244     241      52
CTETRA        72       2     519     172     171     296      52     241+
+            104     334      61     103
CTETRA        73       2     596     531     606     303     271     540+
+            586      65     374     375
CTETRA        74       2     501     568     300     302     424     360+
+             43      14     368     364
CTETRA        75       2     502     299     164     300      37      86+
+            200      44     354      81
CTETRA        76       2     536     173     537     298      30      23+
+            546     348      34     349
CTETRA        77       2     463     172     539     296     240      46+
+            288     100      61     328
CTETRA        78       2     463     464     171     296     478     235+
+            236     100     101     103
CTETRA        79       2     593     515     603     297     255     516+
+            583      45     339     338
CTETRA        80       2     520     170     521     295     105      32+
+            525     331      26     332
CTETRA        81       2     487     163     488     389     193     195+
+            492     394     106     393
CTETRA        82       2     455     604     447       4     269     257+
+            239      99      63      48
CTETRA        83       2     494     163     292     293     189     107+
+            108     109     110     322
CTETRA        84       2     163     293     389     391     110     111+
+            106     112     113     402
CTETRA        85       2     163     292     293     391     107     322+
+            110     112     114     113
CTETRA        86       2     486     162     163     391     182     191+
+            192     405     115     112
CTETRA        87       2     471     531     168     301     272     116+
+            217     117     369     118
CTETRA        88       2     555     556     293     389     560     326+
+            324     401     400     111
CTETRA        89       2     161     291     430     431     119     120+
+            121     122     123     439
CTETRA        90       2     482     596     606       1     484     586+
+            388       8      66     124
CTETRA        91       2     531     168     301     303     116     118+
+            369     374      64     372
CTETRA        92       2     168     301     303       1     118     372+
+             64      31      20      67
CTETRA        93       2     520     171     170     295     125     232+
+            105     331     102      26
CTETRA        94       2     520     171     295     296     125     102+
+            331     333     103     330
CTETRA        95       2     463     171     172     296     236     241+
+            240     100     103      61
CTETRA        96       2     451     522     452       2     264     263+
+            462     126      11     127
CTETRA        97       2     519     171     520     296     104     125+
+            528     334     103     333
CTETRA        98       2     599     163     494     293     190     189+
+            498     128     110     109
CTETRA        99       2     599     609     291     293     590     319+
+            129     128     321     325
CTETRA       100       2     599     291     163     293     129     130+
+            190     128     325     110
CTETRA       101       2     510     599     601     432     187     508+
+            514     444     131     442
CTETRA       102       2     601     599     609     432     508     590+
+            428     442     131     132
CTETRA       103       2     596     303     606       1      65     375+
+            586      66      67     124
CTETRA       104       2     499     607     570       1     419     575+
+            420       7     133      19
CTETRA       105       2     604     518     515       4     530     335+
+            517      63      51      49
CTETRA       106       2     454     455     172       4     459     245+
+            244      53      99      54
CTETRA       107       2     599     494     562     293     498     415+
+            414     128     109     320
CTETRA       108       2     494     163     162     292     189     191+
+            186     108     107     134
CTETRA       109       2     494     495     563     292     497     417+
+            416     108     135     315
CTETRA       110       2     501     502     165     300     504     202+
+            203      43      44      39
CTETRA       111       2     554     555     293     391     559     324+
+            323     413     403     113
CTETRA       112       2     598     602     612     431     509     592+
+            429     136     436     435
CTETRA       113       2     570     303     301       1     371     372+
+            362      19      67      20
CTETRA       114       2     578     608     612     431     309     577+
+            581     437     137     435
CTETRA       115       2     455     594     447     604     458     448+
+            239     269     584     257
CTETRA       116       2     162     292     163     391     134     107+
+            191     115     114     112
CTETRA       117       2     556     291     293     389     308     325+
+            326     400     138     111
CTETRA       118       2     486     163     487     391     192     193+
+            491     405     112     404
CTETRA       119       2     485     162     553     290     181     139+
+            409     140     141     316
CTETRA       120       2     494     162     495     292     186     184+
+            497     108     134     135
CTETRA       121       2     485     553     162     392     409     139+
+            181     410     406     142
CTETRA       122       2     599     291     609     432     129     319+
+            590     131     143     132
CTETRA       123       2     598     608     390     431     589     396+
+            395     136     137     144
CTETRA       124       2     599     161     163     291     188     194+
+            190     129     119     130
CTETRA       125       2     593     539     172     297     287      46+
+            242      45     336      62
CTETRA       126       2     452     520     453     170     262     265+
+            456     234     105     231
CTETRA       127       2     453     520     519     171     265     528+
+            266     233     125     104
CTETRA       128       2     455     447     172       4     239     243+
+            245      99      48      54
CTETRA       129       2     600     164     299       5     201      86+
+             36      87     145      76
CTETRA       130       2     502     164     165     300     200     199+
+            202      44      81      39
CTETRA       131       2     495     610     563     290     418     564+
+            417     146     311     310
CTETRA       132       2     495     162     160     290     184     183+
+            179     146     141      71
CTETRA       133       2     470     166     167       3     208     207+
+            206      57     147      84
CTETRA       134       2     599     562     609     293     414     566+
+            590     128     320     321
CTETRA       135       2     471     168     166     301     217     215+
+            212     117     118      18
CTETRA       136       2     501     569     568     302     423     574+
+            424      14     367     368
CTETRA       137       2     532     165     533     300      38      56+
+            542     358      39     357
CTETRA       138       2     454     518     455       4     268     270+
+            459      53      51      99
CTETRA       139       2     532     300     302       3     358     364+
+            363      40      42      85
CTETRA       140       2     610     290     160     304     311      71+
+             91     382     384      72
CTETRA       141       2     610     304     169       5     382      93+
+             92      88      75      95
CTETRA       142       2     511     161     430     431     174     121+
+            440     438     122     439
CTETRA       143       2     598     511     602     431     178     513+
+            509     136     438     436
CTETRA       144       2     510     430     161     432     441     121+
+            175     444     446     148
CTETRA       145       2     595     160     605       6     222      70+
+            585     149     150      79
CTETRA       146       2     467     535     468     169     279     277+
+            477     223      73     225
CTETRA       147       2     605     304     294       6     383     378+
+            381      79      90      80
CTETRA       148       2     600     610     169       5     587      92+
+            227      87      88      95
CTETRA       149       2     569     166     301     302      17      18+
+            361     367      22     366
CTETRA       150       2     601     609     611     432     428     576+
+            591     442     132     443
CTETRA       151       2     494     563     562     292     416     565+
+            415     108     315     317
CTETRA       152       2     450     159     595       6     247     229+
+            460      78      89     149
CTETRA       153       2     536     294     173     298     342      59+
+             30     348     345      34
CTETRA       154       2     534     535     304       5     543     377+
+            379      74      94      75
CTETRA       155       2     468     169     535       5     225      73+
+            277     151      95      94
CTETRA       156       2     495     160     610     290     179      91+
+            418     146      71     311
CTETRA       157       2     609     291     579     432     319     306+
+            318     132     143     445
CTETRA       158       2     488     389     161     390     393     152+
+            177     397     398     153
CTETRA       159       2     554     391     292     392     413     114+
+            313     407     412     154
CTETRA       160       2     165     167     300       3     209      83+
+             39      41      84      42
CTETRA       161       2     452     522     521       2     263     526+
+            261     127      11      10
CTETRA       162       2     450     294     159       6      58      29+
+            247      78      80      89
CTETRA       163       2     485     160     162     290     185     183+
+            181     140      71     141
CTETRA       164       2     485     553     605     290     409     561+
+            408     140     316     385
CTETRA       165       2     495     162     290     292     184     141+
+            146     135     134     314
CTETRA       166       2     605     160     304       6      70      72+
+            383      79     150      90
CTETRA       167       2     600     164     502     299     201     200+
+            503      36      86      37
CTETRA       168       2     556     291     389     390     308     138+
+            400     399     155     398
CTETRA       169       2     598     390     161     431     395     153+
+            176     136     144     122
CTETRA       170       2     163     293     291     389     110     325+
+            130     106     111     138
CTETRA       171       2     488     161     598     390     177     176+
+            489     397     153     395
CTETRA       172       2     578     579     291     430     580     306+
+            305     433     434     120
CTETRA       173       2     161     430     291     432     121     120+
+            119     148     446     143
CTETRA       174       2     609     579     611     432     318     582+
+            576     132     445     443
CTETRA       175       2     510     161     599     432     175     188+
+            187     444     148     131
CTETRA       176       2     598     161     511     431     176     174+
+            178     136     122     438
CTETRA       177       2     579     291     430     432     306     120+
+            434     445     143     446
CTETRA       178       2     488     163     161     389     195     194+
+            177     393     106     152
CTETRA       179       2     161     163     291     389     194     130+
+            119     152     106     138
CTETRA       180       2     162     292     391     392     134     114+
+            115     142     154     412
CTETRA       181       2     555     389     293     391     401     111+
+            324     403     402     113
CTETRA       182       2     486     162     391     392     182     115+
+            405     411     142     412
CTETRA       183       2     553     290     162     292     316     141+
+            139     312     314     134
CTETRA       184       2     501     568     567     300     424     572+
+            427      43     360     355
CTETRA       185       2     471     532     531     301     273     541+
+            272     117     365     369
CTETRA       186       2     453     170     520     171     231     105+
+            265     233     232     125
CTETRA       187       2     166     301     168       1      18     118+
+            215      21      20      31
CTETRA       188       2     485     162     486     392     181     182+
+            490     410     142     411
CTETRA       189       2     610     160     169     304      91     230+
+             92     382      72      93
CTETRA       190       2     468     535     534       5     277     543+
+            278     151      94      74
CTETRA       191       2     596     168     531     303     218     116+
+            271      65      64     374
CTETRA       192       2     495     290     563     292     146     310+
+            417     135     314     315
CTETRA       193       2     450     605     523     294     258     524+
+            259      58     381     346
CTETRA       194       2     500     167     166     302     210     207+
+            204      13      15      22
CTETRA       195       2     569     166     570     301      17      16+
+            573     361      18     362
CTETRA       196       2     464     537     465     170     285     284+
+            480     237      24     246
CTETRA       197       2     452     521     173       2     261      33+
+            254     127      10      97
CTETRA       198       2     521     170     173     295      32     252+
+             33     332      26      25
CTETRA       199       2     453     519     454     171     266     267+
+            457     233     104     238
CTETRA       200       2     450     595     605       6     460     585+
+            258      78     149      79
CTETRA       201       2     464     170     171     295     237     232+
+            235      35      26     102
CTETRA       202       2     533     164     299     300      60      86+
+            359     357      81     354
CTETRA       203       2     450     294     523       2      58     346+
+            259      96      69      68
CTETRA       204       2     173     298     294       2      34     345+
+             59      97      12      69
CTETRA       205       2     452     521     520     170     261     525+
+            262     234      32     105
CTETRA       206       2     487     163     389     391     193     106+
+            394     404     112     402
CTETRA       207       2     485     605     160     290     408      70+
+            185     140     385      71
CTETRA       208       2     598     612     608     431     429     577+
+            589     136     435     137
CTETRA       209       2     470     471     166       3     473     212+
+            208      57      98     147
CTETRA       210       2     466     535     467     159     281     279+
+            476     221      27     220
CTETRA       211       2     578     291     608     431     305     307+
+            309     437     123     137
CTETRA       212       2     610     299     304       5     356     380+
+            382      88      76      75
CTETRA       213       2     494     292     562     293     108     317+
+            415     109     322     320
CTETRA       214       2     599     161     291     432     188     119+
+            129     131     148     143
CTETRA       215       2     554     293     292     391     323     322+
+            313     413     113     114
CTETRA       216       2     510     511     161     430     512     174+
+            175     441     440     121
CTETRA       217       2     501     165     167     300     203     209+
+            211      43      39      83
CTETRA       218       2     595     485     605     160     493     408+
+            585     222     185      70
CTETRA       219       2     470     167     165       3     206     209+
+            197      57      84      41
CTETRA       220       2     166     302     167       3      22      15+
+            207     147      85      84
CTETRA       221       2     501     300     167     302      43      83+
+            211      14     364      15
CTETRA       222       2     597     550     607       1     386     551+
+            588       9     156     133
CTETRA       223       2     535     169     159     304      73     224+
+             27     377      93      77
CTETRA       224       2     553     292     162     392     312     134+
+            139     406     154     142
CTETRA       225       2     499     570     166       1     420      16+
+            205       7      19      21
CTETRA       226       2     482     606     550       1     388     552+
+            387       8     124     156
CTETRA       227       2     499     597     607       1     507     588+
+            419       7       9     133
CTETRA       228       2     161     390     291     431     153     155+
+            119     122     144     123
CTETRA       229       2     502     567     610     299     426     571+
+            425      37     353     356
CTETRA       230       2     468     164     169       5     219     226+
+            225     151     145      95
CTETRA       231       2     447     297     172       4      47      62+
+            243      48      50      54
CTETRA       232       2     521     298     173       2     352      34+
+             33      10      12      97
CTETRA       233       2     468     534     164       5     278      82+
+            219     151      74     145
CTETRA       234       2     534     299     164       5     376      86+
+             82      74      76     145
CTETRA       235       2     536     159     173     294      28     248+
+             30     342      29      59
CTETRA       236       2     596     471     531     168     474     272+
+            271     218     217     116
CTETRA       237       2     608     291     556     390     307     308+
+            557     396     155     399
CTETRA       238       2     553     554     292     392     558     313+
+            312     406     407     154
CTETRA       239       2     578     430     291     431     433     120+
+            305     437     439     123
CTETRA       240       2     161     389     291     390     152     138+
+            119     153     398     155
CTETRA       241       2     608     291     390     431     307     155+
+            396     137     123     144
CTETRA       242       2     606     303     550       1     375     373+
+            552     124      67     156
CTETRA       243       2     597     482     550       1     483     387+
+            386       9       8     156
CTETRA       244       2     550     570     607       1     370     575+
+            551     156      19     133
CTETRA       245       2     550     303     570       1     373     371+
+            370     156      67      19
CTETRA       246       2     159     304     169       6      77      93+
+            224      89      90     157
CTETRA       247       2     595     159     169       6     229     224+
+            228     149      89     157
CTETRA       248       2     595     169     160       6     228     230+
+            222     149     157     150
CTETRA       249       2     160     169     304       6     230      93+
+             72     150     157      90
CTETRA       250       2     166     301     302       3      18     366+
+             22     147     158      85
CTETRA       251       2     532     302     301       3     363     366+
+            365      40      85     158
CTETRA       252       2     471     532     301       3     273     365+
+            117      98      40     158
CTETRA       253       2     471     301     166       3     117      18+
+            212      98     158     147
CTETRA       254       2     451     452     173       2     462     254+
+            253     126     127      97
CTETRA       255       2     451     523     522       2     260     527+
+            264     126      68      11
CTETRA       256       2     450     523     451       2     259     260+
+            461      96      68     126
CTETRA       257       2     450     451     173       2     461     253+
+            249      96     126      97
CTETRA       258       2     600     169     164       5     227     226+
+            201      87      95     145
$*  Mesh Collector: solidus
$*  Mesh: 3d_mesh(2)
CTETRA       259       2     500     968     969     729     891     972+
+            894     613     767     768
CTETRA       260       2     170     936     464     937     614     852+
+            237     615     947     851
CTETRA       261       2     170     936     733     736     614     809+
+            616     617     814     815
CTETRA       262       2     450     451     921     736     461     821+
+            823     618     619     816
CTETRA       263       2     173     466     465     736     250     481+
+            251     620     621     622
CTETRA       264       2     499     729     969     731     623     768+
+            893     624     778     777
CTETRA       265       2     164     966     502     728     625     887+
+            200     626     765     627
CTETRA       266       2     164     469     932     728     198     839+
+            628     626     629     759
CTETRA       267       2     166     729     470     730     630     631+
+            208     632     770     633
CTETRA       268       2     447     992     914     735     820     916+
+            819     634     805     806
CTETRA       269       2     470     931     932     728     837     939+
+            841     635     760     759
CTETRA       270       2     164     932     727     728     628     761+
+            636     626     759     762
CTETRA       271       2     164     469     468     932     198     475+
+            219     628     839     838
CTETRA       272       2     171     454     734     735     238     637+
+            638     639     640     804
CTETRA       273       2     447     914     455     735     819     641+
+            239     634     806     642
CTETRA       274       2     463     938     593     735     847     846+
+            479     643     803     644
CTETRA       275       2     455     914     917     735     641     802+
+            833     642     806     808
CTETRA       276       2     593     938     992     735     846     946+
+            982     644     803     805
CTETRA       277       2     501     966     967     728     888     971+
+            889     645     765     766
CTETRA       278       2     471     930     931     729     835     940+
+            836     646     775     771
CTETRA       279       2     165     470     469     728     197     472+
+            196     647     635     629
CTETRA       280       2     169     468     933     727     225     840+
+            648     649     650     782
CTETRA       281       2     468     932     933     727     838     942+
+            840     650     761     782
CTETRA       282       2     166     471     470     729     212     473+
+            208     630     646     631
CTETRA       283       2     166     471     729     731     212     646+
+            630     651     652     778
CTETRA       284       2     596     995     930     731     985     941+
+            834     653     781     780
CTETRA       285       2     169     934     722     732     654     783+
+            655     656     786     787
CTETRA       286       2     164     727     966     728     636     763+
+            625     626     762     765
CTETRA       287       2     171     937     938     734     657     945+
+            658     638     798     799
CTETRA       288       2     172     455     454     735     245     459+
+            244     659     642     640
CTETRA       289       2     171     937     463     938     657     850+
+            236     658     945     847
CTETRA       290       2     953     725     726     858     745     754+
+            755     872     660     661
CTETRA       291       2     163     856     726     858     662     663+
+            664     665     869     661
CTETRA       292       2     162     494     725     726     186     666+
+            667     668     669     754
CTETRA       293       2     161     998     599     726     670     988+
+            188     671     753     672
CTETRA       294       2     494     599     961     726     498     884+
+            885     669     672     752
CTETRA       295       2     159     450     595     922     247     460+
+            229     673     825     824
CTETRA       296       2     978     998    1000     898     750     975+
+            981     904     674     902
CTETRA       297       2     162     163     494     726     191     189+
+            186     668     664     669
CTETRA       298       2     160     169     994     732     230     675+
+            676     677     656     791
CTETRA       299       2     160     999     169     732     678     679+
+            230     677     790     656
CTETRA       300       2     160     994     595     952     676     984+
+            222     680     960     875
CTETRA       301       2     455     914     594     917     641     818+
+            458     833     802     832
CTETRA       302       2     170     733     452     736     616     681+
+            234     617     815     682
CTETRA       303       2     170     173     465     736     252     251+
+            246     617     620     622
CTETRA       304       2     170     171     453     734     232     233+
+            231     683     638     684
CTETRA       305       2     171     464     463     937     235     478+
+            236     657     851     850
CTETRA       306       2     161     599     163     726     188     190+
+            194     671     672     664
CTETRA       307       2     599    1000     998     898     895     975+
+            988     685     902     674
CTETRA       308       2     165     501     167     730     203     211+
+            209     686     687     688
CTETRA       309       2     170     465     464     936     246     480+
+            237     614     849     852
CTETRA       310       2     170     453     733     734     231     689+
+            616     683     684     795
CTETRA       311       2     170     464     171     937     237     235+
+            232     615     851     657
CTETRA       312       2     447     593     992     735     449     982+
+            820     634     644     805
CTETRA       313       2     163     487     856     858     193     868+
+            662     665     870     869
CTETRA       314       2     471     596     930     731     474     834+
+            835     652     653     780
CTETRA       315       2     166     470     167     730     208     206+
+            207     632     633     688
CTETRA       316       2     166     499     168     731     205     214+
+            215     651     624     690
CTETRA       317       2     168     499     482     731     214     213+
+            216     690     624     691
CTETRA       318       2     165     470     728     730     197     635+
+            647     686     633     772
CTETRA       319       2     166     500     499     729     204     505+
+            205     630     613     623
CTETRA       320       2     165     167     470     730     209     206+
+            197     686     688     633
CTETRA       321       2     168     596     471     731     218     474+
+            217     690     653     652
CTETRA       322       2     494     961     962     725     885     964+
+            882     666     749     747
CTETRA       323       2     163     599     494     726     190     498+
+            189     664     672     669
CTETRA       324       2     162     858     725     859     692     660+
+            667     693     879     694
CTETRA       325       2     162     163     726     858     191     664+
+            668     692     665     661
CTETRA       326       2     482     499     597     969     213     507+
+            483     695     893     892
CTETRA       327       2     166     167     500     730     207     210+
+            204     632     688     696
CTETRA       328       2     168     482     596     731     216     484+
+            218     690     691     653
CTETRA       329       2     170     936     937     733     614     947+
+            615     616     809     800
CTETRA       330       2     172     447     455     735     243     239+
+            245     659     634     642
CTETRA       331       2     454     918     919     734     830     924+
+            829     637     801     796
CTETRA       332       2     171     454     453     734     238     457+
+            233     638     637     684
CTETRA       333       2     453     919     733     734     828     794+
+            689     684     796     795
CTETRA       334       2     452     453     920     733     456     827+
+            826     681     689     797
CTETRA       335       2     169     933     467     934     648     842+
+            223     654     944     843
CTETRA       336       2     169     727     933     732     649     782+
+            648     656     789     788
CTETRA       337       2     169     722     994     732     655     792+
+            675     656     787     791
CTETRA       338       2     169     468     467     933     225     477+
+            223     648     840     842
CTETRA       339       2     953     726     954     858     755     756+
+            958     872     661     871
CTETRA       340       2     162     486     163     858     182     192+
+            191     692     880     665
CTETRA       341       2     954     726     955     856     756     758+
+            959     861     663     860
CTETRA       342       2     160     962     495     999     697     881+
+            179     678     963     883
CTETRA       343       2     161     163     488     856     194     195+
+            177     698     662     867
CTETRA       344       2     467     934     935     722     843     943+
+            844     699     783     784
CTETRA       345       2     510     601     599     898     514     508+
+            187     905     903     685
CTETRA       346       2     159     722     466     736     700     701+
+            221     702     811     621
CTETRA       347       2     594     914     993     917     818     915+
+            983     832     802     925
CTETRA       348       2     170     937     171     734     615     657+
+            232     683     798     638
CTETRA       349       2     170     453     452     733     231     456+
+            234     616     689     681
CTETRA       350       2     170     452     173     736     234     254+
+            252     617     682     620
CTETRA       351       2     454     455     918     735     459     831+
+            830     640     642     807
CTETRA       352       2     169     999     727     732     679     764+
+            649     656     790     789
CTETRA       353       2     164     169     999     727     226     679+
+            703     636     649     764
CTETRA       354       2     160     962     999     723     697     963+
+            678     704     742     743
CTETRA       355       2     162     952     485     859     705     876+
+            181     693     877     873
CTETRA       356       2     470     931     728     730     837     760+
+            635     633     769     772
CTETRA       357       2     160     495     600     999     179     496+
+            180     678     883     986
CTETRA       358       2     160     162     495     962     183     184+
+            179     697     706     881
CTETRA       359       2     164     999     966     727     703     970+
+            625     636     764     763
CTETRA       360       2     451     920     921     736     822     929+
+            821     619     817     816
CTETRA       361       2     500     967     968     730     890     973+
+            891     696     774     773
CTETRA       362       2     482     499     969     731     213     893+
+            695     691     624     777
CTETRA       363       2     164     502     165     728     200     202+
+            199     626     627     647
CTETRA       364       2     161     511     510     897     174     512+
+            175     707     901     900
CTETRA       365       2     978     897     724     898     907     708+
+            738     904     906     709
CTETRA       366       2     977     724     897     899     737     708+
+            908     912     710     913
CTETRA       367       2     161     897     510     898     707     900+
+            175     711     906     905
CTETRA       368       2     161     724     726     856     712     757+
+            671     698     713     663
CTETRA       369       2     469     470     932     728     472     841+
+            839     629     635     759
CTETRA       370       2     166     168     471     731     215     217+
+            212     651     690     652
CTETRA       371       2     167     501     500     730     211     506+
+            210     688     687     696
CTETRA       372       2     164     932     468     727     628     838+
+            219     636     761     650
CTETRA       373       2     452     733     920     736     681     797+
+            826     682     815     817
CTETRA       374       2     454     918     734     735     830     801+
+            637     640     807     804
CTETRA       375       2     172     593     447     735     242     449+
+            243     659     644     634
CTETRA       376       2     171     172     454     735     241     244+
+            238     639     659     640
CTETRA       377       2     453     454     919     734     457     829+
+            828     684     637     796
CTETRA       378       2     172     463     593     735     240     479+
+            242     659     643     644
CTETRA       379       2     978     724     998     898     738     751+
+            750     904     709     674
CTETRA       380       2     451     452     920     736     462     826+
+            822     619     682     817
CTETRA       381       2     453     919     920     733     828     923+
+            827     689     794     797
CTETRA       382       2     169     933     934     732     648     944+
+            654     656     788     786
CTETRA       383       2     997     977    1001     899     741     980+
+            976     714     912     910
CTETRA       384       2     160     723     952     725     704     748+
+            680     715     746     744
CTETRA       385       2     162     486     858     859     182     880+
+            692     693     874     879
CTETRA       386       2     160     162     962     725     183     706+
+            697     715     667     747
CTETRA       387       2     160     595     485     952     222     493+
+            185     680     875     876
CTETRA       388       2     598     857     997     899     863     862+
+            989     716     717     714
CTETRA       389       2     161     856     488     857     698     867+
+            177     718     865     866
CTETRA       390       2     161     511     897     899     174     901+
+            707     719     911     913
CTETRA       391       2     163     487     488     856     193     492+
+            195     662     868     867
CTETRA       392       2     163     486     487     858     192     491+
+            193     665     880     870
CTETRA       393       2     161     488     598     857     177     489+
+            176     718     866     863
CTETRA       394       2     159     173     450     736     248     249+
+            247     702     620     618
CTETRA       395       2     170     465     936     736     246     849+
+            614     617     622     814
CTETRA       396       2     450     921     922     736     823     928+
+            825     618     816     812
CTETRA       397       2     160     485     162     952     185     181+
+            183     680     876     705
CTETRA       398       2     160     952     162     725     680     705+
+            183     715     744     667
CTETRA       399       2     162     485     486     859     181     490+
+            182     693     873     874
CTETRA       400       2     162     725     952     859     667     744+
+            705     693     694     877
CTETRA       401       2     160     994     952     723     676     960+
+            680     704     785     748
CTETRA       402       2     159     595     169     722     229     228+
+            224     700     720     655
CTETRA       403       2     164     169     600     999     226     227+
+            201     703     679     986
CTETRA       404       2     955     856     724     857     860     713+
+            740     864     865     721
CTETRA       405       2     511     598     602     899     178     509+
+            513     911     716     909
CTETRA       406       2     997     857     724     899     862     721+
+            739     714     717     710
CTETRA       407       2     602     997    1001     899     896     976+
+            991     909     714     910
CTETRA       408       2     161     598     511     899     176     178+
+            174     719     716     911
CTETRA       409       2     997     724     977     899     739     737+
+            741     714     710     912
CTETRA       410       2     955     726     724     856     758     757+
+            740     860     663     713
CTETRA       411       2     161     510     599     898     175     187+
+            188     711     905     685
CTETRA       412       2     161     599     998     898     188     988+
+            670     711     685     674
CTETRA       413       2     955     724     997     857     740     739+
+            956     864     721     862
CTETRA       414       2     599     601    1000     898     508     990+
+            895     685     903     902
CTETRA       415       2     161     724     857     899     712     721+
+            718     719     710     717
CTETRA       416       2     160     600     169     999     180     227+
+            230     678     986     679
CTETRA       417       2     466     467     935     722     476     844+
+            845     701     699     784
CTETRA       418       2     160     994     723     732     676     785+
+            704     677     791     793
CTETRA       419       2     501     728     967     730     645     766+
+            889     687     772     774
CTETRA       420       2     501     502     966     728     504     887+
+            888     645     627     765
CTETRA       421       2     164     165     469     728     199     196+
+            198     626     647     629
CTETRA       422       2     162     494     962     725     186     882+
+            706     667     666     747
CTETRA       423       2     447     594     455     914     448     458+
+            239     819     818     641
CTETRA       424       2     173     451     450     736     253     461+
+            249     620     619     618
CTETRA       425       2     171     463     172     735     236     240+
+            241     639     643     659
CTETRA       426       2     466     935     936     736     845     948+
+            848     621     813     814
CTETRA       427       2     159     922     722     736     673     810+
+            700     702     812     811
CTETRA       428       2     159     450     922     736     247     825+
+            673     702     618     812
CTETRA       429       2     169     595     994     722     228     984+
+            675     655     720     792
CTETRA       430       2     160     169     595     994     230     228+
+            222     676     675     984
CTETRA       431       2     466     722     935     736     701     784+
+            845     621     811     813
CTETRA       432       2     159     467     466     722     220     476+
+            221     700     699     701
CTETRA       433       2     159     169     467     722     224     223+
+            220     700     655     699
CTETRA       434       2     173     452     451     736     254     462+
+            253     620     682     619
CTETRA       435       2     598     997     602     899     989     896+
+            509     716     714     909
CTETRA       436       2     159     922     595     722     673     824+
+            229     700     810     720
CTETRA       437       2     162     494     495     962     186     497+
+            184     706     882     881
CTETRA       438       2     977     724     978     897     737     738+
+            979     908     708     907
CTETRA       439       2     161     724     897     898     712     708+
+            707     711     709     906
CTETRA       440       2     599     998     961     726     988     965+
+            884     672     753     752
CTETRA       441       2     161     897     724     899     707     708+
+            712     719     913     710
CTETRA       442       2     161     998     724     898     670     751+
+            712     711     674     709
CTETRA       443       2     162     726     725     858     668     754+
+            667     692     661     660
CTETRA       444       2     161     726     163     856     671     664+
+            194     698     663     662
CTETRA       445       2     953     725     858     859     745     660+
+            872     878     694     879
CTETRA       446       2     161     724     998     726     712     751+
+            670     671     757     753
CTETRA       447       2     595     922     994     722     824     927+
+            984     720     810     792
CTETRA       448       2     954     726     856     858     756     663+
+            861     871     661     869
CTETRA       449       2     952     725     953     859     744     745+
+            957     877     694     878
CTETRA       450       2     160     723     999     732     704     743+
+            678     677     793     790
CTETRA       451       2     171     734     938     735     638     799+
+            658     639     804     803
CTETRA       452       2     169     934     467     722     654     843+
+            223     655     783     699
CTETRA       453       2     482     969     597     996     695     892+
+            483     855     974     987
CTETRA       454       2     171     938     463     735     658     847+
+            236     639     803     643
CTETRA       455       2     465     466     936     736     481     848+
+            849     622     621     814
CTETRA       456       2     499     500     969     729     505     894+
+            893     623     613     768
CTETRA       457       2     159     466     173     736     221     250+
+            248     702     621     620
CTETRA       458       2     482     969     949     731     695     776+
+            854     691     777     779
CTETRA       459       2     164     999     600     966     703     986+
+            201     625     970     886
CTETRA       460       2     160     962     723     725     697     742+
+            704     715     747     746
CTETRA       461       2     482     949     596     731     854     853+
+            484     691     779     653
CTETRA       462       2     471     930     729     731     835     775+
+            646     652     780     778
CTETRA       463       2     470     471     931     729     473     836+
+            837     631     646     771
CTETRA       464       2     470     729     931     730     631     771+
+            837     633     770     769
CTETRA       465       2     500     968     729     730     891     767+
+            613     696     773     770
CTETRA       466       2     166     500     729     730     204     613+
+            630     632     696     770
CTETRA       467       2     500     501     967     730     506     889+
+            890     696     687     774
CTETRA       468       2     165     728     501     730     647     645+
+            203     686     772     687
CTETRA       469       2     596     949     995     731     853     951+
+            985     653     779     781
CTETRA       470       2     494     961     725     726     885     749+
+            666     669     752     754
CTETRA       471       2     482     969     996     949     695     974+
+            855     854     776     950
CTETRA       472       2     164     600     502     966     201     503+
+            200     625     886     887
CTETRA       473       2     166     729     499     731     630     623+
+            205     651     778     624
CTETRA       474       2     170     733     937     734     616     800+
+            615     683     795     798
CTETRA       475       2     164     468     169     727     219     225+
+            226     636     650     649
CTETRA       476       2     161     724     856     857     712     713+
+            698     718     721     865
CTETRA       477       2     161     857     598     899     718     863+
+            176     719     717     716
CTETRA       478       2     455     917     918     735     833     926+
+            831     642     808     807
CTETRA       479       2     165     502     501     728     202     504+
+            203     647     627     645
$*  Mesh Collector: ic
$*  Mesh: connection_recipe_1_mesh
RBE2         480    1002  123456     463     464     465     466     467+
+            468     469     470     471     472     473     474     475+
+            476     477     478     479     480     481     593     596
$*  Mesh Collector: dabeam
$*  Mesh: connection_recipe_2_mesh
CBEAM        481       3    1002    1003  0.00001.000000-4.69-14
$*
$* PROPERTY CARDS
$*
$*  Property: physSS
PSOLID         2       1       0                           SMECH
$*  Property: PBEAML1
$*  Section: ROD(1)
PBEAML         3       1 MSCBML0     ROD                                +
+       2.000000  0.0000     YES1.0000002.000000  0.0000
$*
$* MATERIAL CARDS
$*
$*  Material: AISI_310_SS
MAT1           11.9314+8        0.3000007.9278-61.4750-5
MATT1          1       1               2               3
TABLEM1        1                       1                                +
+        20.00001.9314+8 21.11001.9314+8    ENDT
TABLEM1        2                       1                                +
+        20.00000.300000 21.11000.300000    ENDT
TABLEM1        3                       1                                +
+        20.00001.4750-5 93.33001.5120-5107.22001.5192-5121.11001.5264-5+
+       135.00001.5336-5148.89001.5390-5162.78001.5462-5176.67001.5534-5+
+       190.56001.5588-5204.44001.5660-5218.33001.5732-5232.22001.5786-5+
+       246.11001.5840-5260.00001.5912-5273.89001.5966-5287.78001.6020-5+
+       301.67001.6092-5315.56001.6146-5329.44001.6200-5343.33001.6254-5+
+       357.22001.6326-5371.11001.6380-5385.00001.6434-5398.89001.6506-5+
+       412.78001.6560-5426.67001.6614-5440.56001.6668-5454.44001.6740-5+
+       468.33001.6794-5482.22001.6848-5496.11001.6920-5510.00001.6974-5+
+       523.89001.7028-5537.78001.7100-5551.67001.7172-5565.56001.7226-5+
+       579.44001.7298-5593.33001.7370-5607.22001.7442-5621.11001.7514-5+
+       635.00001.7586-5648.89001.7640-5662.78001.7694-5676.67001.7766-5+
+       690.56001.7820-5704.44001.7874-5718.33001.7928-5732.22001.7982-5+
+       746.11001.8036-5760.00001.8090-5773.89001.8144-5787.78001.8198-5+
+       801.67001.8252-5815.56001.8324-5829.44001.8378-5843.33001.8432-5+
+       857.22001.8486-5871.11001.8540-5885.00001.8594-5898.89001.8648-5+
+       912.78001.8702-5926.67001.8756-5940.56001.8810-5954.44001.8846-5+
+       968.33001.8900-5982.22001.8954-5    ENDT
$*
$* LOAD AND CONSTRAINT CARDS
$*
$*  Constraint: Fixed(1)
SPC            1     430  123456  0.0000
SPC            1     431  123456  0.0000
SPC            1     432  123456  0.0000
SPC            1     433  123456  0.0000
SPC            1     434  123456  0.0000
SPC            1     435  123456  0.0000
SPC            1     436  123456  0.0000
SPC            1     437  123456  0.0000
SPC            1     438  123456  0.0000
SPC            1     439  123456  0.0000
SPC            1     440  123456  0.0000
SPC            1     441  123456  0.0000
SPC            1     442  123456  0.0000
SPC            1     443  123456  0.0000
SPC            1     444  123456  0.0000
SPC            1     445  123456  0.0000
SPC            1     446  123456  0.0000
SPC            1     510  123456  0.0000
SPC            1     511  123456  0.0000
SPC            1     512  123456  0.0000
SPC            1     513  123456  0.0000
SPC            1     514  123456  0.0000
SPC            1     578  123456  0.0000
SPC            1     579  123456  0.0000
SPC            1     580  123456  0.0000
SPC            1     581  123456  0.0000
SPC            1     582  123456  0.0000
SPC            1     591  123456  0.0000
SPC            1     592  123456  0.0000
SPC            1     601  123456  0.0000
SPC            1     602  123456  0.0000
SPC            1     611  123456  0.0000
SPC            1     612  123456  0.0000
SPC            1     897  123456  0.0000
SPC            1     898  123456  0.0000
SPC            1     899  123456  0.0000
SPC            1     900  123456  0.0000
SPC            1     901  123456  0.0000
SPC            1     902  123456  0.0000
SPC            1     903  123456  0.0000
SPC            1     904  123456  0.0000
SPC            1     905  123456  0.0000
SPC            1     906  123456  0.0000
SPC            1     907  123456  0.0000
SPC            1     908  123456  0.0000
SPC            1     909  123456  0.0000
SPC            1     910  123456  0.0000
SPC            1     911  123456  0.0000
SPC            1     912  123456  0.0000
SPC            1     913  123456  0.0000
SPC            1     977  123456  0.0000
SPC            1     978  123456  0.0000
SPC            1     979  123456  0.0000
SPC            1     980  123456  0.0000
SPC            1     981  123456  0.0000
SPC            1     990  123456  0.0000
SPC            1     991  123456  0.0000
SPC            1    1000  123456  0.0000
SPC            1    1001  123456  0.0000
$*  Load: Force(1)
FORCE          2    1003       01.0000+6  0.0000-1.00000  0.0000
ENDDATA 53537bcc
