$*$$$$$$$$$$$$$$$$$$$$$$$$$$$$$$$$$$$$$$$$$$$$$$$$$$$$$$$$$$$$$$$$$
$*
$*                    Simcenter v12.0.1.7 Translator
$*                    for NX Nastran version 12.1
$*
$*             FEM FILE: C:\work\Dropbox\ITBA\Deform&Fractura\monografia\modelo\dobleelipse\dub_fem1.fem
$*             SIM FILE: C:\work\Dropbox\ITBA\Deform&Fractura\monografia\modelo\dobleelipse\dub_sim1.sim
$*        ANALYSIS TYPE: Structural
$*        SOLUTION NAME: Solution 1
$*        SOLUTION TYPE: SOL 101 Linear Statics - Global Constraints
$*
$*    SOLVER INPUT FILE: dub_sim1-solution_1.dat
$*        CREATION DATE:  2-May-2020
$*        CREATION TIME: 12:18:35
$*             HOSTNAME: WHITTILEAKS
$*      NASTRAN LICENSE: Desktop Bundle
$*
$*                UNITS: mm (milli-newton)
$*                      ... LENGTH : mm
$*                      ... TIME   : sec
$*                      ... MASS   : kilogram (kg)
$*                      ... TEMPERATURE : deg Celsius
$*                      ... FORCE  : milli-newton
$*                      ... THERMAL ENERGY : mN-mm (micro-joule)
$*
$* IMPORTANT NOTE:
$*     This banner was generated by Simcenter and altering this 
$*     information may compromise the pre and post processing of results
$*
$*$$$$$$$$$$$$$$$$$$$$$$$$$$$$$$$$$$$$$$$$$$$$$$$$$$$$$$$$$$$$$$$$$
$*
$*$$$$$$$$$$$$$$$$$$$$$$$$$$$$$$$$$$$
$*
$* FILE MANAGEMENT
$*
$*$$$$$$$$$$$$$$$$$$$$$$$$$$$$$$$$$$$
$*
$*
$*$$$$$$$$$$$$$$$$$$$$$$$$$$$$$$$$$$$
$*
$* EXECUTIVE CONTROL
$*
$*$$$$$$$$$$$$$$$$$$$$$$$$$$$$$$$$$$$
$*
ID,NASTRAN,dub_sim1-solution_1
SOL 101
CEND
$*
$*$$$$$$$$$$$$$$$$$$$$$$$$$$$$$$$$$$$
$*
$* CASE CONTROL
$*
$*$$$$$$$$$$$$$$$$$$$$$$$$$$$$$$$$$$$
$*
ECHO = NONE
SPC = 100
OUTPUT
DISPLACEMENT(PLOT,REAL) = ALL
SPCFORCES(PLOT,REAL) = ALL
STRESS(PLOT,REAL,VONMISES,CENTER) = ALL
$*  Step: Subcase - Static Loads 1
SUBCASE 1
  LABEL = Subcase - Static Loads 1
  LOAD = 4
$*
$*$$$$$$$$$$$$$$$$$$$$$$$$$$$$$$$$$$$
$*
$* BULK DATA
$*
$*$$$$$$$$$$$$$$$$$$$$$$$$$$$$$$$$$$$
$*
BEGIN BULK
$*
$* PARAM CARDS
$*
PARAM      K6ROT100.0000
PARAM     OIBULK     YES
PARAM    OMACHPR     YES
PARAM       POST      -2
PARAM    POSTEXT     YES
PARAM    UNITSYS   MN-MM
$*
$* GRID CARDS
$*
GRID*                  1               02.8632023506E+014.4953251808E+00+
*       0.0000000000E+00               0
GRID*                  2               03.0151026818E+016.2521663760E+00+
*       0.0000000000E+00               0
GRID*                  3               03.0144314705E+018.2124703662E+00+
*       0.0000000000E+00               0
GRID*                  4               03.2281419168E+011.0691149602E+01+
*       0.0000000000E+00               0
GRID*                  5               03.1934121270E+011.5062021303E+01+
*       0.0000000000E+00               0
GRID*                  6               01.6438051605E+011.1717724987E+01+
*       0.0000000000E+00               0
GRID*                  7               01.3963028060E+011.5086210662E+01+
*       0.0000000000E+00               0
GRID*                  8               08.7550821900E+001.4853575614E+01+
*       0.0000000000E+00               0
GRID*                  9               03.5478634017E+001.4942669342E+01+
*       0.0000000000E+00               0
GRID*                 10               02.6424170689E+011.5537423514E+01+
*       0.0000000000E+00               0
GRID*                 11               02.8674095819E+011.1447082284E+01+
*       0.0000000000E+00               0
GRID*                 12               01.7907929965E+011.4544872189E+01+
*       0.0000000000E+00               0
GRID*                 13               02.1631481178E+011.5404969182E+01+
*       0.0000000000E+00               0
GRID*                 14               02.0100605523E+011.1341170097E+01+
*       0.0000000000E+00               0
GRID*                 15               02.4435964539E+011.1404980002E+01+
*       0.0000000000E+00               0
GRID*                 16               02.6908922188E+018.0706265377E+00+
*       0.0000000000E+00               0
GRID*                 17               02.8681644476E+016.1320370414E+00+
*       0.0000000000E+00               0
GRID*                 18               04.7895425372E+017.8473747622E+00+
*       0.0000000000E+00               0
GRID*                 19               04.4676927857E+016.6606587579E+00+
*       0.0000000000E+00               0
GRID*                 20               04.2573365369E+015.8096068752E+00+
*       0.0000000000E+00               0
GRID*                 21               04.0823281796E+015.2445563817E+00+
*       0.0000000000E+00               0
GRID*                 22               03.8889023247E+014.8776082145E+00+
*       0.0000000000E+00               0
GRID*                 23               03.7465647321E+014.0800142907E+00+
*       0.0000000000E+00               0
GRID*                 24               03.6424798184E+013.6374365757E+00+
*       0.0000000000E+00               0
GRID*                 25               03.5474183329E+013.2977776335E+00+
*       0.0000000000E+00               0
GRID*                 26               03.4647671747E+012.9591063959E+00+
*       0.0000000000E+00               0
GRID*                 27               03.3999750030E+012.6554572661E+00+
*       0.0000000000E+00               0
GRID*                 28               03.3498060663E+012.4151122904E+00+
*       0.0000000000E+00               0
GRID*                 29               03.3061332772E+012.2575143991E+00+
*       0.0000000000E+00               0
GRID*                 30               03.2622140218E+012.1269413855E+00+
*       0.0000000000E+00               0
GRID*                 31               03.2214471095E+011.9448040254E+00+
*       0.0000000000E+00               0
GRID*                 32               03.1887010504E+011.7529057932E+00+
*       0.0000000000E+00               0
GRID*                 33               03.1593946164E+011.6253555072E+00+
*       0.0000000000E+00               0
GRID*                 34               03.1308078436E+011.5443770940E+00+
*       0.0000000000E+00               0
GRID*                 35               03.1032984248E+011.4613854194E+00+
*       0.0000000000E+00               0
GRID*                 36               03.1496567237E+011.3240365751E+00+
*       0.0000000000E+00               0
GRID*                 37               03.1383502261E+011.0414582306E+00+
*       0.0000000000E+00               0
GRID*                 38               03.2348849130E+012.4803915832E-01+
*       0.0000000000E+00               0
GRID*                 39               03.2165095668E+014.7744054447E-01+
*       0.0000000000E+00               0
GRID*                 40               03.1982119704E+016.8630369037E-01+
*       0.0000000000E+00               0
GRID*                 41               03.1807223741E+018.7941211988E-01+
*       0.0000000000E+00               0
GRID*                 42               03.1656058552E+011.0889334040E+00+
*       0.0000000000E+00               0
GRID*                 43               03.1889021469E+014.4499101603E-01+
*       0.0000000000E+00               0
GRID*                 44               03.1786265008E+012.2550907623E-01+
*       0.0000000000E+00               0
GRID*                 45               03.2066663796E+012.3294433961E-01+
*       0.0000000000E+00               0
GRID*                 46               03.1530818187E+018.2207248035E-01+
*       0.0000000000E+00               0
GRID*                 47               03.1706858563E+016.3009246575E-01+
*       0.0000000000E+00               0
GRID*                 48               03.1634851992E+014.1467830075E-01+
*       0.0000000000E+00               0
GRID*                 49               03.2260583457E+017.3323038030E-01+
*       0.0000000000E+00               0
GRID*                 50               03.2352694936E+011.0055499228E+00+
*       0.0000000000E+00               0
GRID*                 51               03.2445406520E+011.3174792404E+00+
*       0.0000000000E+00               0
GRID*                 52               03.2535931521E+011.6888785252E+00+
*       0.0000000000E+00               0
GRID*                 53               03.2173674298E+011.5494934640E+00+
*       0.0000000000E+00               0
GRID*                 54               03.2070933228E+019.3617963583E-01+
*       0.0000000000E+00               0
GRID*                 55               03.2129810120E+011.2128737261E+00+
*       0.0000000000E+00               0
GRID*                 56               03.1832662067E+011.3788627233E+00+
*       0.0000000000E+00               0
GRID*                 57               03.1899480512E+011.0945680951E+00+
*       0.0000000000E+00               0
GRID*                 58               03.2450007467E+015.0651525358E-01+
*       0.0000000000E+00               0
GRID*                 59               03.2547021919E+017.6954945925E-01+
*       0.0000000000E+00               0
GRID*                 60               03.2670851982E+011.0434626110E+00+
*       0.0000000000E+00               0
GRID*                 61               03.2820297279E+011.3841234854E+00+
*       0.0000000000E+00               0
GRID*                 62               03.2949075213E+011.8026887636E+00+
*       0.0000000000E+00               0
GRID*                 63               03.4062227521E+014.1229524699E-01+
*       0.0000000000E+00               0
GRID*                 64               03.3746612108E+016.8238257464E-01+
*       0.0000000000E+00               0
GRID*                 65               03.3552733949E+011.0431249466E+00+
*       0.0000000000E+00               0
GRID*                 66               03.3259291813E+011.4411596534E+00+
*       0.0000000000E+00               0
GRID*                 67               03.2738909713E+015.3634275498E-01+
*       0.0000000000E+00               0
GRID*                 68               03.3041485282E+015.9474587366E-01+
*       0.0000000000E+00               0
GRID*                 69               03.3394909673E+016.6005299566E-01+
*       0.0000000000E+00               0
GRID*                 70               03.2810034211E+017.8445150149E-01+
*       0.0000000000E+00               0
GRID*                 71               03.3079572838E+019.9268995236E-01+
*       0.0000000000E+00               0
GRID*                 72               03.2641491683E+012.6338671746E-01+
*       0.0000000000E+00               0
GRID*                 73               03.2949931073E+012.8557915266E-01+
*       0.0000000000E+00               0
GRID*                 74               03.3286930004E+013.1470202210E-01+
*       0.0000000000E+00               0
GRID*                 75               03.3655319688E+013.4561738907E-01+
*       0.0000000000E+00               0
GRID*                 76               03.4111643626E+019.6907765650E-01+
*       0.0000000000E+00               0
GRID*                 77               03.4343250331E+011.5768732268E+00+
*       0.0000000000E+00               0
GRID*                 78               03.4529772148E+012.2151117291E+00+
*       0.0000000000E+00               0
GRID*                 79               03.3918945172E+012.0468134570E+00+
*       0.0000000000E+00               0
GRID*                 80               03.3405298692E+011.9109740149E+00+
*       0.0000000000E+00               0
GRID*                 81               03.3761536435E+011.4998028643E+00+
*       0.0000000000E+00               0
GRID*                 82               03.4567887719E+014.9669927429E-01+
*       0.0000000000E+00               0
GRID*                 83               03.4752163600E+011.0583798606E+00+
*       0.0000000000E+00               0
GRID*                 84               03.5012018708E+011.6591285165E+00+
*       0.0000000000E+00               0
GRID*                 85               03.5290644667E+012.3982723202E+00+
*       0.0000000000E+00               0
GRID*                 86               03.5162182380E+015.5766591149E-01+
*       0.0000000000E+00               0
GRID*                 87               03.5842971548E+016.8502384031E-01+
*       0.0000000000E+00               0
GRID*                 88               03.5911532282E+011.6113713942E+00+
*       0.0000000000E+00               0
GRID*                 89               03.6216321338E+012.6331379384E+00+
*       0.0000000000E+00               0
GRID*                 90               03.5321766698E+011.1047913280E+00+
*       0.0000000000E+00               0
GRID*                 91               03.6729996207E+018.8290149797E-01+
*       0.0000000000E+00               0
GRID*                 92               03.6980778042E+011.8987328235E+00+
*       0.0000000000E+00               0
GRID*                 93               03.7248911251E+012.9418291074E+00+
*       0.0000000000E+00               0
GRID*                 94               03.7858384743E+011.1091602425E+00+
*       0.0000000000E+00               0
GRID*                 95               03.7959046862E+012.1891307129E+00+
*       0.0000000000E+00               0
GRID*                 96               03.8524142916E+013.2246399362E+00+
*       0.0000000000E+00               0
GRID*                 97               03.9420017009E+011.7099147757E+00+
*       0.0000000000E+00               0
GRID*                 98               04.0283521959E+013.4954012862E+00+
*       0.0000000000E+00               0
GRID*                 99               04.1760002881E+011.9316747887E+00+
*       0.0000000000E+00               0
GRID*                100               04.2306403334E+013.9263729346E+00+
*       0.0000000000E+00               0
GRID*                101               04.4353023143E+012.3911627386E+00+
*       0.0000000000E+00               0
GRID*                102               04.7455614945E+013.7676959804E+00+
*       0.0000000000E+00               0
GRID*                103               04.4131034659E+014.5384985149E+00+
*       0.0000000000E+00               0
GRID*                104               03.1220149296E+011.2577116876E+00+
*       0.0000000000E+00               0
GRID*                105               02.9099734594E+013.0032274387E+00+
*       0.0000000000E+00               0
GRID*                106               02.9371167283E+013.3962767696E+00+
*       0.0000000000E+00               0
GRID*                107               02.9736904692E+013.8665596942E+00+
*       0.0000000000E+00               0
GRID*                108               03.0203136294E+014.4947502431E+00+
*       0.0000000000E+00               0
GRID*                109               03.0781667084E+015.3725808519E+00+
*       0.0000000000E+00               0
GRID*                110               03.1543644178E+016.5872512652E+00+
*       0.0000000000E+00               0
GRID*                111               03.2759658536E+018.1435820305E+00+
*       0.0000000000E+00               0
GRID*                112               03.4690835681E+019.4022491212E+00+
*       0.0000000000E+00               0
GRID*                113               03.5379109424E+011.2059097137E+01+
*       0.0000000000E+00               0
GRID*                114               03.7218767368E+011.5595584437E+01+
*       0.0000000000E+00               0
GRID*                115               02.9117118143E+013.8451688554E+00+
*       0.0000000000E+00               0
GRID*                116               02.8864849906E+013.3515948438E+00+
*       0.0000000000E+00               0
GRID*                117               02.8605334979E+013.6590199438E+00+
*       0.0000000000E+00               0
GRID*                118               02.9475630358E+014.3651102089E+00+
*       0.0000000000E+00               0
GRID*                119               02.9669652063E+015.1797475612E+00+
*       0.0000000000E+00               0
GRID*                120               02.9564914540E+012.9597643526E+00+
*       0.0000000000E+00               0
GRID*                121               02.9726233363E+012.5653365213E+00+
*       0.0000000000E+00               0
GRID*                122               02.9861108628E+012.2331722806E+00+
*       0.0000000000E+00               0
GRID*                123               02.9970604110E+011.9529355922E+00+
*       0.0000000000E+00               0
GRID*                124               03.0240093100E+011.9005183113E+00+
*       0.0000000000E+00               0
GRID*                125               03.0154033376E+012.1718939263E+00+
*       0.0000000000E+00               0
GRID*                126               03.0080396742E+012.4862993774E+00+
*       0.0000000000E+00               0
GRID*                127               02.9999051196E+012.8647808193E+00+
*       0.0000000000E+00               0
GRID*                128               02.9907070181E+013.3216910202E+00+
*       0.0000000000E+00               0
GRID*                129               03.2744036348E+012.5892036790E+00+
*       0.0000000000E+00               0
GRID*                130               03.2436637695E+012.9878869319E+00+
*       0.0000000000E+00               0
GRID*                131               03.2115444078E+013.3995468396E+00+
*       0.0000000000E+00               0
GRID*                132               03.1771651833E+013.8187024451E+00+
*       0.0000000000E+00               0
GRID*                133               03.1221403638E+014.3927724556E+00+
*       0.0000000000E+00               0
GRID*                134               03.1579663486E+013.2786927417E+00+
*       0.0000000000E+00               0
GRID*                135               03.1437631314E+012.8143613511E+00+
*       0.0000000000E+00               0
GRID*                136               03.1306127451E+012.4148089096E+00+
*       0.0000000000E+00               0
GRID*                137               03.1193958535E+012.0701005976E+00+
*       0.0000000000E+00               0
GRID*                138               03.1105015809E+011.7553162014E+00+
*       0.0000000000E+00               0
GRID*                139               03.1912182917E+012.9013358280E+00+
*       0.0000000000E+00               0
GRID*                140               03.1649467276E+011.8906353056E+00+
*       0.0000000000E+00               0
GRID*                141               03.1516693883E+012.1305206735E+00+
*       0.0000000000E+00               0
GRID*                142               03.1394420400E+011.8347324663E+00+
*       0.0000000000E+00               0
GRID*                143               03.1702664461E+012.4681607117E+00+
*       0.0000000000E+00               0
GRID*                144               03.1858459528E+012.1010069983E+00+
*       0.0000000000E+00               0
GRID*                145               03.2212094816E+012.4427516515E+00+
*       0.0000000000E+00               0
GRID*                146               03.0817162836E+011.6521128370E+00+
*       0.0000000000E+00               0
GRID*                147               03.0463039974E+013.7286446805E+00+
*       0.0000000000E+00               0
GRID*                148               03.0756419334E+013.2921131964E+00+
*       0.0000000000E+00               0
GRID*                149               03.1107515462E+013.0960724071E+00+
*       0.0000000000E+00               0
GRID*                150               03.1153149027E+013.5878810084E+00+
*       0.0000000000E+00               0
GRID*                151               03.1031743492E+012.6792221386E+00+
*       0.0000000000E+00               0
GRID*                152               03.0954304432E+012.3079017096E+00+
*       0.0000000000E+00               0
GRID*                153               03.0877002704E+011.9703147277E+00+
*       0.0000000000E+00               0
GRID*                154               03.0369219425E+012.7155983516E+00+
*       0.0000000000E+00               0
GRID*                155               03.0717428182E+012.9070010436E+00+
*       0.0000000000E+00               0
GRID*                156               03.0368783781E+013.1272801941E+00+
*       0.0000000000E+00               0
GRID*                157               03.0548439358E+011.8496135063E+00+
*       0.0000000000E+00               0
GRID*                158               03.0390684990E+012.0970048044E+00+
*       0.0000000000E+00               0
GRID*                159               03.0385350357E+012.3631340549E+00+
*       0.0000000000E+00               0
GRID*                160               03.0639379165E+012.1869618778E+00+
*       0.0000000000E+00               0
GRID*                161               03.0682352106E+012.5243019890E+00+
*       0.0000000000E+00               0
GRID*                162               03.5622612583E+014.2888128959E+00+
*       0.0000000000E+00               0
GRID*                163               03.4536408001E+015.0524598571E+00+
*       0.0000000000E+00               0
GRID*                164               03.3372855670E+016.3193175988E+00+
*       0.0000000000E+00               0
GRID*                165               03.2663601173E+013.4685812808E+00+
*       0.0000000000E+00               0
GRID*                166               03.2880223431E+014.0245121751E+00+
*       0.0000000000E+00               0
GRID*                167               03.3105228153E+014.8510056465E+00+
*       0.0000000000E+00               0
GRID*                168               03.2328520157E+013.8127593320E+00+
*       0.0000000000E+00               0
GRID*                169               03.2019003751E+015.3006832240E+00+
*       0.0000000000E+00               0
GRID*                170               03.2222269246E+014.3583369064E+00+
*       0.0000000000E+00               0
GRID*                171               03.3270307020E+013.4799953455E+00+
*       0.0000000000E+00               0
GRID*                172               03.3956443567E+013.3235689174E+00+
*       0.0000000000E+00               0
GRID*                173               03.4658279133E+013.8194200423E+00+
*       0.0000000000E+00               0
GRID*                174               03.3718885752E+014.0708989056E+00+
*       0.0000000000E+00               0
GRID*                175               03.3468710088E+012.9244706421E+00+
*       0.0000000000E+00               0
GRID*                176               03.3145087858E+012.6417317533E+00+
*       0.0000000000E+00               0
GRID*                177               03.2953111394E+013.0109596368E+00+
*       0.0000000000E+00               0
GRID*                178               03.9658244385E+016.4955426751E+00+
*       0.0000000000E+00               0
GRID*                179               03.8281190148E+017.8471468970E+00+
*       0.0000000000E+00               0
GRID*                180               03.7125058505E+019.8263475496E+00+
*       0.0000000000E+00               0
GRID*                181               03.5223086749E+016.5013329320E+00+
*       0.0000000000E+00               0
GRID*                182               03.6078857381E+017.9585899470E+00+
*       0.0000000000E+00               0
GRID*                183               03.4432170902E+017.6531829213E+00+
*       0.0000000000E+00               0
GRID*                184               03.6832671406E+016.5146566489E+00+
*       0.0000000000E+00               0
GRID*                185               03.8177407639E+016.1886189767E+00+
*       0.0000000000E+00               0
GRID*                186               03.6021149067E+015.3623007829E+00+
*       0.0000000000E+00               0
GRID*                187               03.6561911448E+014.5247359320E+00+
*       0.0000000000E+00               0
GRID*                188               03.7306716841E+015.2585223222E+00+
*       0.0000000000E+00               0
GRID*                189               04.0434801209E+017.9681047797E+00+
*       0.0000000000E+00               0
GRID*                190               04.1419412574E+019.2601020452E+00+
*       0.0000000000E+00               0
GRID*                191               04.1082361079E+011.0992019679E+01+
*       0.0000000000E+00               0
GRID*                192               04.2133503364E+011.4459586598E+01+
*       0.0000000000E+00               0
GRID*                193               03.9526782987E+019.6378514486E+00+
*       0.0000000000E+00               0
GRID*                194               03.8694085989E+011.2022262710E+01+
*       0.0000000000E+00               0
GRID*                195               04.1156977931E+016.6508830112E+00+
*       0.0000000000E+00               0
GRID*                196               04.2313395282E+017.6824042606E+00+
*       0.0000000000E+00               0
GRID*                197               04.3871680206E+019.8768041475E+00+
*       0.0000000000E+00               0
GRID*                198               04.7374360492E+011.2551925348E+01+
*       0.0000000000E+00               0
GRID*                199               02.9547047133E+012.2516974990E+00+
*       0.0000000000E+00               0
GRID*                200               02.9691117662E+011.9778726712E+00+
*       0.0000000000E+00               0
GRID*                201               02.9313457906E+012.5938159467E+00+
*       0.0000000000E+00               0
GRID*                202               07.2664299839E+001.7426787807E+01+
*       0.0000000000E+00               0
GRID*                203               01.0155318873E+011.7426787807E+01+
*       0.0000000000E+00               0
GRID*                204               04.7409079811E+001.2372539115E+01+
*       0.0000000000E+00               0
GRID*                205               07.3445173753E+001.2327992251E+01+
*       0.0000000000E+00               0
GRID*                206               06.1514727958E+001.4898122478E+01+
*       0.0000000000E+00               0
GRID*                207               01.7739317008E+001.2471334671E+01+
*       0.0000000000E+00               0
GRID*                208               01.7739317008E+001.4971334671E+01+
*       0.0000000000E+00               0
GRID*                209               04.6628205897E+001.7471334671E+01+
*       0.0000000000E+00               0
GRID*                210               01.7739317008E+001.7471334671E+01+
*       0.0000000000E+00               0
GRID*                211               01.0297108426E+011.2021046658E+01+
*       0.0000000000E+00               0
GRID*                212               01.1359055125E+011.4969893138E+01+
*       0.0000000000E+00               0
GRID*                213               01.2759291808E+011.7543105331E+01+
*       0.0000000000E+00               0
GRID*                214               01.4138593134E+011.0453121344E+01+
*       0.0000000000E+00               0
GRID*                215               01.7054583893E+019.8993310567E+00+
*       0.0000000000E+00               0
GRID*                216               01.2901081361E+011.2137364182E+01+
*       0.0000000000E+00               0
GRID*                217               01.5200539833E+011.3401967825E+01+
*       0.0000000000E+00               0
GRID*                218               02.7656529789E+011.7768711757E+01+
*       0.0000000000E+00               0
GRID*                219               02.4767640900E+011.7768711757E+01+
*       0.0000000000E+00               0
GRID*                220               03.0477757494E+011.1069115943E+01+
*       0.0000000000E+00               0
GRID*                221               02.9409205262E+019.8297763249E+00+
*       0.0000000000E+00               0
GRID*                222               03.1212866937E+019.4518099839E+00+
*       0.0000000000E+00               0
GRID*                223               03.0411505080E+011.7531010652E+01+
*       0.0000000000E+00               0
GRID*                224               03.3300393968E+011.7531010652E+01+
*       0.0000000000E+00               0
GRID*                225               02.9179145980E+011.5299722409E+01+
*       0.0000000000E+00               0
GRID*                226               03.0304108545E+011.3254551793E+01+
*       0.0000000000E+00               0
GRID*                227               03.2107770219E+011.2876585452E+01+
*       0.0000000000E+00               0
GRID*                228               02.7549133254E+011.3492252899E+01+
*       0.0000000000E+00               0
GRID*                229               01.5648180697E+011.7543105331E+01+
*       0.0000000000E+00               0
GRID*                230               01.7620631649E+011.7272436094E+01+
*       0.0000000000E+00               0
GRID*                231               01.5935479013E+011.4815541425E+01+
*       0.0000000000E+00               0
GRID*                232               02.2371296145E+011.7702484591E+01+
*       0.0000000000E+00               0
GRID*                233               02.4027825934E+011.5471196348E+01+
*       0.0000000000E+00               0
GRID*                234               01.9482407256E+011.7702484591E+01+
*       0.0000000000E+00               0
GRID*                235               01.9769705572E+011.4974920685E+01+
*       0.0000000000E+00               0
GRID*                236               01.7172990785E+011.3131298588E+01+
*       0.0000000000E+00               0
GRID*                237               01.9004267744E+011.2943021143E+01+
*       0.0000000000E+00               0
GRID*                238               02.0866043350E+011.3373069640E+01+
*       0.0000000000E+00               0
GRID*                239               01.8269328564E+011.1529447542E+01+
*       0.0000000000E+00               0
GRID*                240               02.3033722859E+011.3404974592E+01+
*       0.0000000000E+00               0
GRID*                241               02.2268285031E+011.1373075050E+01+
*       0.0000000000E+00               0
GRID*                242               02.5430067614E+011.3471201758E+01+
*       0.0000000000E+00               0
GRID*                243               02.6555030179E+011.1426031143E+01+
*       0.0000000000E+00               0
GRID*                244               01.8885860852E+019.7110536118E+00+
*       0.0000000000E+00               0
GRID*                245               02.9416335647E+016.1921017087E+00+
*       0.0000000000E+00               0
GRID*                246               02.9175648269E+015.6558923013E+00+
*       0.0000000000E+00               0
GRID*                247               02.9910339441E+015.7159569686E+00+
*       0.0000000000E+00               0
GRID*                248               02.7791509004E+019.7588544107E+00+
*       0.0000000000E+00               0
GRID*                249               02.8526618447E+018.1415484520E+00+
*       0.0000000000E+00               0
GRID*                250               02.5672443364E+019.7378032700E+00+
*       0.0000000000E+00               0
GRID*                251               02.9412979591E+017.1722537038E+00+
*       0.0000000000E+00               0
GRID*                252               03.0147670762E+017.2323183711E+00+
*       0.0000000000E+00               0
GRID*                253               02.7795283332E+017.1013317895E+00+
*       0.0000000000E+00               0
GRID*                254               02.7561784245E+014.5943591187E+00+
*       0.0000000000E+00               0
GRID*                255               02.8345570586E+014.0167401065E+00+
*       0.0000000000E+00               0
GRID*                256               02.8656833991E+015.3136811111E+00+
*       0.0000000000E+00               0
GRID*                257               02.7586594730E+015.4127150490E+00+
*       0.0000000000E+00               0
GRID*                258               02.1446553532E+018.9216371620E+00+
*       0.0000000000E+00               0
GRID*                259               02.6700233586E+016.3820097971E+00+
*       0.0000000000E+00               0
GRID*                260               02.4850711865E+017.2863653822E+00+
*       0.0000000000E+00               0
GRID*                261               02.3614233041E+018.9535421145E+00+
*       0.0000000000E+00               0
GRID*                262               03.2296483631E+011.2401957916E-01+
*       0.0000000000E+00               0
GRID*                263               03.2439757189E+011.2401957916E-01+
*       0.0000000000E+00               0
GRID*                264               03.2207756463E+012.4049174896E-01+
*       0.0000000000E+00               0
GRID*                265               03.2256972399E+013.6273985140E-01+
*       0.0000000000E+00               0
GRID*                266               03.2115879732E+013.5519244204E-01+
*       0.0000000000E+00               0
GRID*                267               03.2155390964E+011.1647216980E-01+
*       0.0000000000E+00               0
GRID*                268               03.2018315620E+011.1647216980E-01+
*       0.0000000000E+00               0
GRID*                269               03.1878116226E+011.1275453812E-01+
*       0.0000000000E+00               0
GRID*                270               03.1744979755E+011.1275453812E-01+
*       0.0000000000E+00               0
GRID*                271               03.1926464402E+012.2922670792E-01+
*       0.0000000000E+00               0
GRID*                272               03.2027058568E+014.6121578025E-01+
*       0.0000000000E+00               0
GRID*                273               03.2073607686E+015.8187211742E-01+
*       0.0000000000E+00               0
GRID*                274               03.1935570586E+015.6564735320E-01+
*       0.0000000000E+00               0
GRID*                275               03.1977842632E+013.3896767782E-01+
*       0.0000000000E+00               0
GRID*                276               03.1837643238E+013.3525004613E-01+
*       0.0000000000E+00               0
GRID*                277               03.1844489134E+016.5819807806E-01+
*       0.0000000000E+00               0
GRID*                278               03.1797940016E+015.3754174089E-01+
*       0.0000000000E+00               0
GRID*                279               03.1894671723E+017.8285790513E-01+
*       0.0000000000E+00               0
GRID*                280               03.1757041152E+017.5475229282E-01+
*       0.0000000000E+00               0
GRID*                281               03.1519780406E+011.0651958173E+00+
*       0.0000000000E+00               0
GRID*                282               03.1576312894E+011.2064849895E+00+
*       0.0000000000E+00               0
GRID*                283               03.1440034749E+011.1827474029E+00+
*       0.0000000000E+00               0
GRID*                284               03.1457160224E+019.3176535550E-01+
*       0.0000000000E+00               0
GRID*                285               03.1593438369E+019.5550294218E-01+
*       0.0000000000E+00               0
GRID*                286               03.1669020964E+018.5074230012E-01+
*       0.0000000000E+00               0
GRID*                287               03.1618838375E+017.2608247305E-01+
*       0.0000000000E+00               0
GRID*                288               03.1731641146E+019.8417276195E-01+
*       0.0000000000E+00               0
GRID*                289               03.1398348499E+017.9181418268E-01+
*       0.0000000000E+00               0
GRID*                290               03.1324690536E+019.0150705783E-01+
*       0.0000000000E+00               0
GRID*                291               03.1562578992E+011.3087045362E-01+
*       0.0000000000E+00               0
GRID*                292               03.1603864245E+012.4362499174E-01+
*       0.0000000000E+00               0
GRID*                293               03.1446689983E+016.6979759875E-01+
*       0.0000000000E+00               0
GRID*                294               03.1534710171E+015.7380759145E-01+
*       0.0000000000E+00               0
GRID*                295               03.1498706885E+014.6610050895E-01+
*       0.0000000000E+00               0
GRID*                296               03.1670855277E+015.2238538325E-01+
*       0.0000000000E+00               0
GRID*                297               03.1528157737E+013.3820960400E-01+
*       0.0000000000E+00               0
GRID*                298               03.1761936730E+014.2983465839E-01+
*       0.0000000000E+00               0
GRID*                299               03.1710558500E+013.2009368849E-01+
*       0.0000000000E+00               0
GRID*                300               03.2354802909E+011.6191859946E+00+
*       0.0000000000E+00               0
GRID*                301               03.2309540409E+011.4334863522E+00+
*       0.0000000000E+00               0
GRID*                302               03.2490669020E+011.5031788828E+00+
*       0.0000000000E+00               0
GRID*                303               03.2375201308E+011.8168412753E+00+
*       0.0000000000E+00               0
GRID*                304               03.2579035869E+011.9079099553E+00+
*       0.0000000000E+00               0
GRID*                305               03.2418305656E+012.0358727054E+00+
*       0.0000000000E+00               0
GRID*                306               03.2194072696E+011.7471487447E+00+
*       0.0000000000E+00               0
GRID*                307               03.2050740799E+011.8488549093E+00+
*       0.0000000000E+00               0
GRID*                308               03.2030342401E+011.6511996286E+00+
*       0.0000000000E+00               0
GRID*                309               03.2121351581E+017.0976703533E-01+
*       0.0000000000E+00               0
GRID*                310               03.2212839562E+016.0533546239E-01+
*       0.0000000000E+00               0
GRID*                311               03.2165758343E+018.3470500806E-01+
*       0.0000000000E+00               0
GRID*                312               03.2306639196E+018.6939015155E-01+
*       0.0000000000E+00               0
GRID*                313               03.2211814082E+019.7086477931E-01+
*       0.0000000000E+00               0
GRID*                314               03.2026526466E+018.1124166310E-01+
*       0.0000000000E+00               0
GRID*                315               03.1939078485E+019.0779587786E-01+
*       0.0000000000E+00               0
GRID*                316               03.2287608320E+011.2651764833E+00+
*       0.0000000000E+00               0
GRID*                317               03.2151742209E+011.3811835951E+00+
*       0.0000000000E+00               0
GRID*                318               03.2241252528E+011.1092118245E+00+
*       0.0000000000E+00               0
GRID*                319               03.2100371674E+011.0745266810E+00+
*       0.0000000000E+00               0
GRID*                320               03.2399050728E+011.1615145816E+00+
*       0.0000000000E+00               0
GRID*                321               03.2003168183E+011.4641780937E+00+
*       0.0000000000E+00               0
GRID*                322               03.1981236094E+011.2958682247E+00+
*       0.0000000000E+00               0
GRID*                323               03.1859836286E+011.5658842582E+00+
*       0.0000000000E+00               0
GRID*                324               03.1740478334E+011.6891306502E+00+
*       0.0000000000E+00               0
GRID*                325               03.1713304116E+011.5021091153E+00+
*       0.0000000000E+00               0
GRID*                326               03.1664614652E+011.3514496492E+00+
*       0.0000000000E+00               0
GRID*                327               03.1545256700E+011.4746960411E+00+
*       0.0000000000E+00               0
GRID*                328               03.1853352127E+019.8699010751E-01+
*       0.0000000000E+00               0
GRID*                329               03.1777769532E+011.0917507496E+00+
*       0.0000000000E+00               0
GRID*                330               03.1985206870E+011.0153738655E+00+
*       0.0000000000E+00               0
GRID*                331               03.2014645316E+011.1537209106E+00+
*       0.0000000000E+00               0
GRID*                332               03.1866071290E+011.2367154092E+00+
*       0.0000000000E+00               0
GRID*                333               03.1744360310E+011.2338980636E+00+
*       0.0000000000E+00               0
GRID*                334               03.2307551567E+014.9197789903E-01+
*       0.0000000000E+00               0
GRID*                335               03.2399428298E+013.7727720595E-01+
*       0.0000000000E+00               0
GRID*                336               03.2355295462E+016.1987281694E-01+
*       0.0000000000E+00               0
GRID*                337               03.2498514693E+016.3803235641E-01+
*       0.0000000000E+00               0
GRID*                338               03.2403802688E+017.5138991977E-01+
*       0.0000000000E+00               0
GRID*                339               03.2511773459E+011.0245062669E+00+
*       0.0000000000E+00               0
GRID*                340               03.2558129251E+011.1804709257E+00+
*       0.0000000000E+00               0
GRID*                341               03.2449858427E+018.8754969102E-01+
*       0.0000000000E+00               0
GRID*                342               03.2608936950E+019.0650603514E-01+
*       0.0000000000E+00               0
GRID*                343               03.2632851899E+011.3508013629E+00+
*       0.0000000000E+00               0
GRID*                344               03.2678114400E+011.5365010053E+00+
*       0.0000000000E+00               0
GRID*                345               03.2745574630E+011.2137930482E+00+
*       0.0000000000E+00               0
GRID*                346               03.2785607716E+011.9648150745E+00+
*       0.0000000000E+00               0
GRID*                347               03.3005203993E+012.0301015813E+00+
*       0.0000000000E+00               0
GRID*                348               03.2841736495E+012.1922278923E+00+
*       0.0000000000E+00               0
GRID*                349               03.2742503367E+011.7457836444E+00+
*       0.0000000000E+00               0
GRID*                350               03.2884686246E+011.5934061245E+00+
*       0.0000000000E+00               0
GRID*                351               03.2642965816E+016.5294610711E-01+
*       0.0000000000E+00               0
GRID*                352               03.2594458590E+015.2142900428E-01+
*       0.0000000000E+00               0
GRID*                353               03.2774471962E+016.6039712823E-01+
*       0.0000000000E+00               0
GRID*                354               03.2890197497E+015.6554431432E-01+
*       0.0000000000E+00               0
GRID*                355               03.2925759746E+016.8959868757E-01+
*       0.0000000000E+00               0
GRID*                356               03.2678528065E+017.7700048037E-01+
*       0.0000000000E+00               0
GRID*                357               03.2740443096E+019.1395705626E-01+
*       0.0000000000E+00               0
GRID*                358               03.2875212410E+011.0180762817E+00+
*       0.0000000000E+00               0
GRID*                359               03.2949935059E+011.1884067189E+00+
*       0.0000000000E+00               0
GRID*                360               03.2944803524E+018.8857072692E-01+
*       0.0000000000E+00               0
GRID*                361               03.3060529060E+017.9371791301E-01+
*       0.0000000000E+00               0
GRID*                362               03.3218197478E+016.2739943466E-01+
*       0.0000000000E+00               0
GRID*                363               03.3237241256E+018.2637147401E-01+
*       0.0000000000E+00               0
GRID*                364               03.3473821811E+018.5158897111E-01+
*       0.0000000000E+00               0
GRID*                365               03.3316153393E+011.0179074495E+00+
*       0.0000000000E+00               0
GRID*                366               03.3570760891E+016.7121778515E-01+
*       0.0000000000E+00               0
GRID*                367               03.3649673028E+018.6275376060E-01+
*       0.0000000000E+00               0
GRID*                368               03.3039794546E+011.4126415694E+00+
*       0.0000000000E+00               0
GRID*                369               03.3104183513E+011.6219242085E+00+
*       0.0000000000E+00               0
GRID*                370               03.3169432326E+011.2169248029E+00+
*       0.0000000000E+00               0
GRID*                371               03.3406012881E+011.2421423000E+00+
*       0.0000000000E+00               0
GRID*                372               03.2495170407E+012.5571293789E-01+
*       0.0000000000E+00               0
GRID*                373               03.2586078466E+011.3169335873E-01+
*       0.0000000000E+00               0
GRID*                374               03.2545749575E+013.8495098552E-01+
*       0.0000000000E+00               0
GRID*                375               03.2690200698E+013.9986473622E-01+
*       0.0000000000E+00               0
GRID*                376               03.2844420393E+014.1096095382E-01+
*       0.0000000000E+00               0
GRID*                377               03.2995708178E+014.4016251316E-01+
*       0.0000000000E+00               0
GRID*                378               03.2795711378E+012.7448293506E-01+
*       0.0000000000E+00               0
GRID*                379               03.2738197908E+011.3169335873E-01+
*       0.0000000000E+00               0
GRID*                380               03.2892417603E+011.4278957633E-01+
*       0.0000000000E+00               0
GRID*                381               03.3164207643E+014.5472394788E-01+
*       0.0000000000E+00               0
GRID*                382               03.3118430539E+013.0014058738E-01+
*       0.0000000000E+00               0
GRID*                383               03.3700965898E+015.1399998186E-01+
*       0.0000000000E+00               0
GRID*                384               03.3858773605E+013.7895631803E-01+
*       0.0000000000E+00               0
GRID*                385               03.3904419815E+015.4733891081E-01+
*       0.0000000000E+00               0
GRID*                386               03.3525114681E+015.0283519237E-01+
*       0.0000000000E+00               0
GRID*                387               03.3340919839E+014.8737750888E-01+
*       0.0000000000E+00               0
GRID*                388               03.3471124846E+013.3015970559E-01+
*       0.0000000000E+00               0
GRID*                389               03.3056624943E+011.4278957633E-01+
*       0.0000000000E+00               0
GRID*                390               03.3225124408E+011.5735101105E-01+
*       0.0000000000E+00               0
GRID*                391               03.3405549119E+011.5735101105E-01+
*       0.0000000000E+00               0
GRID*                392               03.3995293954E+012.0614762349E-01+
*       0.0000000000E+00               0
GRID*                393               03.4226518135E+012.0614762349E-01+
*       0.0000000000E+00               0
GRID*                394               03.3791840037E+011.7280869454E-01+
*       0.0000000000E+00               0
GRID*                395               03.3589743961E+011.7280869454E-01+
*       0.0000000000E+00               0
GRID*                396               03.4264761089E+012.4352844976E+00+
*       0.0000000000E+00               0
GRID*                397               03.4588721948E+012.5871090625E+00+
*       0.0000000000E+00               0
GRID*                398               03.4323710889E+012.8072818310E+00+
*       0.0000000000E+00               0
GRID*                399               03.3929127867E+018.2573011557E-01+
*       0.0000000000E+00               0
GRID*                400               03.4086935574E+016.9068645174E-01+
*       0.0000000000E+00               0
GRID*                401               03.4224358660E+012.1309625931E+00+
*       0.0000000000E+00               0
GRID*                402               03.4131097751E+011.8118433419E+00+
*       0.0000000000E+00               0
GRID*                403               03.4436511240E+011.8959924780E+00+
*       0.0000000000E+00               0
GRID*                404               03.3959347601E+012.3511353615E+00+
*       0.0000000000E+00               0
GRID*                405               03.3748905346E+012.5352847783E+00+
*       0.0000000000E+00               0
GRID*                406               03.3708502917E+012.2309628737E+00+
*       0.0000000000E+00               0
GRID*                407               03.3233315732E+012.0842442070E+00+
*       0.0000000000E+00               0
GRID*                408               03.3177186953E+011.8568313892E+00+
*       0.0000000000E+00               0
GRID*                409               03.3451679677E+012.1630431526E+00+
*       0.0000000000E+00               0
GRID*                410               03.3662121932E+011.9788937359E+00+
*       0.0000000000E+00               0
GRID*                411               03.3279696717E+012.3363133447E+00+
*       0.0000000000E+00               0
GRID*                412               03.3332295252E+011.6760668341E+00+
*       0.0000000000E+00               0
GRID*                413               03.3583417563E+011.7053884396E+00+
*       0.0000000000E+00               0
GRID*                414               03.3840240803E+011.7733081607E+00+
*       0.0000000000E+00               0
GRID*                415               03.3510414124E+011.4704812589E+00+
*       0.0000000000E+00               0
GRID*                416               03.3657135192E+011.2714639054E+00+
*       0.0000000000E+00               0
GRID*                417               03.4052393383E+011.5383380456E+00+
*       0.0000000000E+00               0
GRID*                418               03.3936590030E+011.2344402604E+00+
*       0.0000000000E+00               0
GRID*                419               03.4227446979E+011.2729754417E+00+
*       0.0000000000E+00               0
GRID*                420               03.3832188787E+011.0061013015E+00+
*       0.0000000000E+00               0
GRID*                421               04.9947712686E+016.2289707576E+00+
*       0.0000000000E+00               0
GRID*                422               04.9947712686E+018.6411397689E+00+
*       0.0000000000E+00               0
GRID*                423               03.4315057620E+014.5449726064E-01+
*       0.0000000000E+00               0
GRID*                424               03.4479348233E+012.4834963714E-01+
*       0.0000000000E+00               0
GRID*                425               03.4339765673E+017.3288846539E-01+
*       0.0000000000E+00               0
GRID*                426               03.4660025660E+017.7753956746E-01+
*       0.0000000000E+00               0
GRID*                427               03.4431903613E+011.0137287586E+00+
*       0.0000000000E+00               0
GRID*                428               03.4547706966E+011.3176265437E+00+
*       0.0000000000E+00               0
GRID*                429               03.4882091154E+011.3587541885E+00+
*       0.0000000000E+00               0
GRID*                430               03.4677634519E+011.6180008716E+00+
*       0.0000000000E+00               0
GRID*                431               03.4969158207E+012.6786893581E+00+
*       0.0000000000E+00               0
GRID*                432               03.5382413998E+012.8480249769E+00+
*       0.0000000000E+00               0
GRID*                433               03.5060927538E+013.1284420147E+00+
*       0.0000000000E+00               0
GRID*                434               03.4770895428E+011.9371201228E+00+
*       0.0000000000E+00               0
GRID*                435               03.4910208407E+012.3066920247E+00+
*       0.0000000000E+00               0
GRID*                436               03.5151331687E+012.0287004183E+00+
*       0.0000000000E+00               0
GRID*                437               03.5047398905E+012.7883295574E-01+
*       0.0000000000E+00               0
GRID*                438               03.5373445018E+012.7883295574E-01+
*       0.0000000000E+00               0
GRID*                439               03.4865035049E+015.2718259289E-01+
*       0.0000000000E+00               0
GRID*                440               03.4957172990E+018.0802288606E-01+
*       0.0000000000E+00               0
GRID*                441               03.4750251574E+012.4834963714E-01+
*       0.0000000000E+00               0
GRID*                442               03.5845252334E+012.9654577860E+00+
*       0.0000000000E+00               0
GRID*                443               03.6320559761E+013.1352872571E+00+
*       0.0000000000E+00               0
GRID*                444               03.5949490757E+013.4676071046E+00+
*       0.0000000000E+00               0
GRID*                445               03.5753483002E+012.5157051293E+00+
*       0.0000000000E+00               0
GRID*                446               03.5601088474E+012.0048218572E+00+
*       0.0000000000E+00               0
GRID*                447               03.6063926810E+012.1222546663E+00+
*       0.0000000000E+00               0
GRID*                448               03.5502576964E+016.2134487590E-01+
*       0.0000000000E+00               0
GRID*                449               03.5713839602E+013.4251192016E-01+
*       0.0000000000E+00               0
GRID*                450               03.5616649490E+011.3580813611E+00+
*       0.0000000000E+00               0
GRID*                451               03.5582369123E+018.9490758416E-01+
*       0.0000000000E+00               0
GRID*                452               03.5877251915E+011.1481976172E+00+
*       0.0000000000E+00               0
GRID*                453               03.5461775495E+011.6352499553E+00+
*       0.0000000000E+00               0
GRID*                454               03.5166892703E+011.3819599222E+00+
*       0.0000000000E+00               0
GRID*                455               03.5036965149E+011.0815855943E+00+
*       0.0000000000E+00               0
GRID*                456               03.5241974539E+018.3122861975E-01+
*       0.0000000000E+00               0
GRID*                457               03.6286483877E+017.8396266914E-01+
*       0.0000000000E+00               0
GRID*                458               03.6320764244E+011.2471364461E+00+
*       0.0000000000E+00               0
GRID*                459               03.6118526634E+013.4251192016E-01+
*       0.0000000000E+00               0
GRID*                460               03.6562038964E+014.4145074899E-01+
*       0.0000000000E+00               0
GRID*                461               03.6446155162E+011.7550521088E+00+
*       0.0000000000E+00               0
GRID*                462               03.6598549690E+012.2659353810E+00+
*       0.0000000000E+00               0
GRID*                463               03.6855387125E+011.3908171607E+00+
*       0.0000000000E+00               0
GRID*                464               03.6732616294E+012.7874835229E+00+
*       0.0000000000E+00               0
GRID*                465               03.7114844647E+012.4202809654E+00+
*       0.0000000000E+00               0
GRID*                466               03.6836854717E+013.2896328415E+00+
*       0.0000000000E+00               0
GRID*                467               03.7357279286E+013.5109216991E+00+
*       0.0000000000E+00               0
GRID*                468               03.6945222753E+013.8587254332E+00+
*       0.0000000000E+00               0
GRID*                469               03.7994895119E+013.6523271134E+00+
*       0.0000000000E+00               0
GRID*                470               03.8706583082E+014.0511240753E+00+
*       0.0000000000E+00               0
GRID*                471               03.8177335284E+014.4788112526E+00+
*       0.0000000000E+00               0
GRID*                472               03.7886527083E+013.0832345218E+00+
*       0.0000000000E+00               0
GRID*                473               03.7603979056E+012.5654799101E+00+
*       0.0000000000E+00               0
GRID*                474               03.7469912452E+012.0439317682E+00+
*       0.0000000000E+00               0
GRID*                475               03.8241594889E+012.7068853245E+00+
*       0.0000000000E+00               0
GRID*                476               03.7082356816E+014.4145074899E-01+
*       0.0000000000E+00               0
GRID*                477               03.7646551083E+015.5458012126E-01+
*       0.0000000000E+00               0
GRID*                478               03.7294190475E+019.9603087025E-01+
*       0.0000000000E+00               0
GRID*                479               03.7419581393E+011.5039465330E+00+
*       0.0000000000E+00               0
GRID*                480               03.7908715803E+011.6491454777E+00+
*       0.0000000000E+00               0
GRID*                481               03.9123134432E+018.5495738783E-01+
*       0.0000000000E+00               0
GRID*                482               04.0090597768E+018.5495738783E-01+
*       0.0000000000E+00               0
GRID*                483               03.8342318299E+015.5458012126E-01+
*       0.0000000000E+00               0
GRID*                484               03.8639200876E+011.4095375091E+00+
*       0.0000000000E+00               0
GRID*                485               03.8689531936E+011.9495227443E+00+
*       0.0000000000E+00               0
GRID*                486               03.8972079963E+012.4672773559E+00+
*       0.0000000000E+00               0
GRID*                487               03.9586272603E+014.1865047504E+00+
*       0.0000000000E+00               0
GRID*                488               04.0553401878E+014.3699788340E+00+
*       0.0000000000E+00               0
GRID*                489               03.9856152522E+015.0610822981E+00+
*       0.0000000000E+00               0
GRID*                490               03.9403832438E+013.3600206112E+00+
*       0.0000000000E+00               0
GRID*                491               03.9851769484E+012.6026580310E+00+
*       0.0000000000E+00               0
GRID*                492               04.1564842565E+014.5854646581E+00+
*       0.0000000000E+00               0
GRID*                493               04.2439884351E+014.8679899049E+00+
*       0.0000000000E+00               0
GRID*                494               04.1698323583E+015.5270816285E+00+
*       0.0000000000E+00               0
GRID*                495               04.1294962646E+013.7108871104E+00+
*       0.0000000000E+00               0
GRID*                496               04.1021762420E+012.7135380375E+00+
*       0.0000000000E+00               0
GRID*                497               04.2033203107E+012.9290238616E+00+
*       0.0000000000E+00               0
GRID*                498               04.0590009945E+011.8207947822E+00+
*       0.0000000000E+00               0
GRID*                499               04.1260590705E+019.6583739436E-01+
*       0.0000000000E+00               0
GRID*                500               04.7675520158E+015.8075353713E+00+
*       0.0000000000E+00               0
GRID*                501               04.9727807472E+014.1891313667E+00+
*       0.0000000000E+00               0
GRID*                502               04.6066271401E+015.2141773692E+00+
*       0.0000000000E+00               0
GRID*                503               04.6286176614E+017.2540167600E+00+
*       0.0000000000E+00               0
GRID*                504               04.5793324802E+014.1530972477E+00+
*       0.0000000000E+00               0
GRID*                505               04.4242028901E+013.4648306268E+00+
*       0.0000000000E+00               0
GRID*                506               04.5904319044E+013.0794293595E+00+
*       0.0000000000E+00               0
GRID*                507               04.4403981258E+015.5995786364E+00+
*       0.0000000000E+00               0
GRID*                508               04.3329713238E+013.1587678366E+00+
*       0.0000000000E+00               0
GRID*                509               04.3056513012E+012.1614187637E+00+
*       0.0000000000E+00               0
GRID*                510               04.3218718996E+014.2324357248E+00+
*       0.0000000000E+00               0
GRID*                511               04.3352200014E+015.1740526951E+00+
*       0.0000000000E+00               0
GRID*                512               04.3625146613E+016.2351328165E+00+
*       0.0000000000E+00               0
GRID*                513               04.2638224324E+019.6583739436E-01+
*       0.0000000000E+00               0
GRID*                514               04.3934734454E+011.1955813693E+00+
*       0.0000000000E+00               0
GRID*                515               04.9727807472E+011.8838479902E+00+
*       0.0000000000E+00               0
GRID*                516               04.7393028544E+011.8838479902E+00+
*       0.0000000000E+00               0
GRID*                517               04.5841732644E+011.1955813693E+00+
*       0.0000000000E+00               0
GRID*                518               03.1000888879E+011.3269528499E+00+
*       0.0000000000E+00               0
GRID*                519               03.0904051984E+011.4155392612E+00+
*       0.0000000000E+00               0
GRID*                520               03.1258561592E+011.0148623191E+00+
*       0.0000000000E+00               0
GRID*                521               03.1176885109E+011.1229890475E+00+
*       0.0000000000E+00               0
GRID*                522               03.1094471403E+011.2251159840E+00+
*       0.0000000000E+00               0
GRID*                523               03.1301825779E+011.1495849591E+00+
*       0.0000000000E+00               0
GRID*                524               03.1358358266E+011.2908741313E+00+
*       0.0000000000E+00               0
GRID*                525               03.1126566772E+011.3595485535E+00+
*       0.0000000000E+00               0
GRID*                526               03.1264113866E+011.4010443908E+00+
*       0.0000000000E+00               0
GRID*                527               03.1170531342E+011.5028812567E+00+
*       0.0000000000E+00               0
GRID*                528               03.1402322837E+011.4342068345E+00+
*       0.0000000000E+00               0
GRID*                529               03.1451012300E+011.5848663006E+00+
*       0.0000000000E+00               0
GRID*                530               03.0843979442E+017.3998608157E+00+
*       0.0000000000E+00               0
GRID*                531               03.0847335498E+016.4197088206E+00+
*       0.0000000000E+00               0
GRID*                532               03.5942717017E+011.7797792219E+01+
*       0.0000000000E+00               0
GRID*                533               03.8831605906E+011.7797792219E+01+
*       0.0000000000E+00               0
GRID*                534               03.4576444319E+011.5328802870E+01+
*       0.0000000000E+00               0
GRID*                535               03.3656615347E+011.3560559220E+01+
*       0.0000000000E+00               0
GRID*                536               03.6298938396E+011.3827340787E+01+
*       0.0000000000E+00               0
GRID*                537               03.3830264296E+011.1375123369E+01+
*       0.0000000000E+00               0
GRID*                538               03.3486127425E+011.0046699361E+01+
*       0.0000000000E+00               0
GRID*                539               03.5034972552E+011.0730673129E+01+
*       0.0000000000E+00               0
GRID*                540               03.1451986620E+018.1780261984E+00+
*       0.0000000000E+00               0
GRID*                541               03.2151651357E+017.3654166478E+00+
*       0.0000000000E+00               0
GRID*                542               03.2520538852E+019.4173658161E+00+
*       0.0000000000E+00               0
GRID*                543               03.3725247108E+018.7729155758E+00+
*       0.0000000000E+00               0
GRID*                544               02.8617630069E+013.3011687730E+00+
*       0.0000000000E+00               0
GRID*                545               02.8752700390E+013.1646990054E+00+
*       0.0000000000E+00               0
GRID*                546               02.8618679242E+014.0771725623E+00+
*       0.0000000000E+00               0
GRID*                547               02.8861226561E+013.7520943996E+00+
*       0.0000000000E+00               0
GRID*                548               02.8874570824E+014.1702470181E+00+
*       0.0000000000E+00               0
GRID*                549               02.8332226322E+013.5985874880E+00+
*       0.0000000000E+00               0
GRID*                550               02.8735092442E+013.5053073938E+00+
*       0.0000000000E+00               0
GRID*                551               02.8990984024E+013.5983818496E+00+
*       0.0000000000E+00               0
GRID*                552               02.8487872605E+013.4548813230E+00+
*       0.0000000000E+00               0
GRID*                553               02.9118008595E+013.3739358067E+00+
*       0.0000000000E+00               0
GRID*                554               02.9244142713E+013.6207228125E+00+
*       0.0000000000E+00               0
GRID*                555               02.8982292250E+013.1774111412E+00+
*       0.0000000000E+00               0
GRID*                556               02.9235450939E+013.1997521042E+00+
*       0.0000000000E+00               0
GRID*                557               02.8870142734E+012.9905153029E+00+
*       0.0000000000E+00               0
GRID*                558               02.8986759516E+012.8584927500E+00+
*       0.0000000000E+00               0
GRID*                559               02.9427011417E+013.8558642748E+00+
*       0.0000000000E+00               0
GRID*                560               02.9554035988E+013.6314182319E+00+
*       0.0000000000E+00               0
GRID*                561               02.9296374250E+014.1051395321E+00+
*       0.0000000000E+00               0
GRID*                562               02.9053826932E+014.4302176948E+00+
*       0.0000000000E+00               0
GRID*                563               02.9606267525E+014.1158349515E+00+
*       0.0000000000E+00               0
GRID*                564               02.9970020493E+014.1806549686E+00+
*       0.0000000000E+00               0
GRID*                565               02.9839383326E+014.4299302260E+00+
*       0.0000000000E+00               0
GRID*                566               03.0225659574E+015.2761642065E+00+
*       0.0000000000E+00               0
GRID*                567               02.9936394179E+014.8372489021E+00+
*       0.0000000000E+00               0
GRID*                568               03.0492401689E+014.9336655475E+00+
*       0.0000000000E+00               0
GRID*                569               03.0466346951E+015.8123736139E+00+
*       0.0000000000E+00               0
GRID*                570               03.1162655631E+015.9799160585E+00+
*       0.0000000000E+00               0
GRID*                571               02.9150837784E+014.8375363710E+00+
*       0.0000000000E+00               0
GRID*                572               02.9572641211E+014.7724288850E+00+
*       0.0000000000E+00               0
GRID*                573               02.9781982868E+012.9122725859E+00+
*       0.0000000000E+00               0
GRID*                574               02.9645573952E+012.7625504369E+00+
*       0.0000000000E+00               0
GRID*                575               02.9862642279E+012.7150586703E+00+
*       0.0000000000E+00               0
GRID*                576               02.9735992361E+013.1407276864E+00+
*       0.0000000000E+00               0
GRID*                577               02.9953060688E+013.0932359198E+00+
*       0.0000000000E+00               0
GRID*                578               02.9639118732E+013.3589838949E+00+
*       0.0000000000E+00               0
GRID*                579               02.9821987437E+013.5941253572E+00+
*       0.0000000000E+00               0
GRID*                580               02.9468040912E+013.1780205611E+00+
*       0.0000000000E+00               0
GRID*                581               03.0153955167E+011.8012368467E+00+
*       0.0000000000E+00               0
GRID*                582               03.0279782859E+011.7639229518E+00+
*       0.0000000000E+00               0
GRID*                583               03.0105348605E+011.9267269517E+00+
*       0.0000000000E+00               0
GRID*                584               03.0019210672E+011.8274454871E+00+
*       0.0000000000E+00               0
GRID*                585               03.0197063238E+012.0362061188E+00+
*       0.0000000000E+00               0
GRID*                586               03.0062318743E+012.0624147593E+00+
*       0.0000000000E+00               0
GRID*                587               02.9903315053E+012.5258179494E+00+
*       0.0000000000E+00               0
GRID*                588               03.0039723969E+012.6755400984E+00+
*       0.0000000000E+00               0
GRID*                589               03.0007571002E+012.2025331035E+00+
*       0.0000000000E+00               0
GRID*                590               02.9915856369E+012.0930539364E+00+
*       0.0000000000E+00               0
GRID*                591               02.9970752685E+012.3597358290E+00+
*       0.0000000000E+00               0
GRID*                592               02.9793670995E+012.3992544010E+00+
*       0.0000000000E+00               0
GRID*                593               03.0117215059E+012.3290966519E+00+
*       0.0000000000E+00               0
GRID*                594               03.0712269966E+014.4437613493E+00+
*       0.0000000000E+00               0
GRID*                595               03.1001535361E+014.8826766537E+00+
*       0.0000000000E+00               0
GRID*                596               03.1745923201E+013.0900142848E+00+
*       0.0000000000E+00               0
GRID*                597               03.1508647400E+013.0465270464E+00+
*       0.0000000000E+00               0
GRID*                598               03.1674907116E+012.8578485895E+00+
*       0.0000000000E+00               0
GRID*                599               03.2013813497E+013.1504413338E+00+
*       0.0000000000E+00               0
GRID*                600               03.2174410306E+012.9446113799E+00+
*       0.0000000000E+00               0
GRID*                601               03.2276040886E+013.1937168857E+00+
*       0.0000000000E+00               0
GRID*                602               03.1847553782E+013.3391197907E+00+
*       0.0000000000E+00               0
GRID*                603               03.1943547955E+013.6091246424E+00+
*       0.0000000000E+00               0
GRID*                604               03.1675657659E+013.5486975934E+00+
*       0.0000000000E+00               0
GRID*                605               03.1206547123E+011.6498466477E+00+
*       0.0000000000E+00               0
GRID*                606               03.1069000029E+011.6083508104E+00+
*       0.0000000000E+00               0
GRID*                607               03.1351249418E+011.6895547802E+00+
*       0.0000000000E+00               0
GRID*                608               03.1494183282E+011.7300439868E+00+
*       0.0000000000E+00               0
GRID*                609               03.1249718105E+011.7950243338E+00+
*       0.0000000000E+00               0
GRID*                610               03.1294189468E+011.9524165319E+00+
*       0.0000000000E+00               0
GRID*                611               03.1149487172E+011.9127083995E+00+
*       0.0000000000E+00               0
GRID*                612               03.1355326209E+012.1003106355E+00+
*       0.0000000000E+00               0
GRID*                613               03.1411410667E+012.2726647915E+00+
*       0.0000000000E+00               0
GRID*                614               03.1250042993E+012.2424547536E+00+
*       0.0000000000E+00               0
GRID*                615               03.1455557142E+011.9826265699E+00+
*       0.0000000000E+00               0
GRID*                616               03.1621706720E+011.7579954064E+00+
*       0.0000000000E+00               0
GRID*                617               03.1768238890E+011.8217705494E+00+
*       0.0000000000E+00               0
GRID*                618               03.1521943838E+011.8626838859E+00+
*       0.0000000000E+00               0
GRID*                619               03.1583080580E+012.0105779895E+00+
*       0.0000000000E+00               0
GRID*                620               03.1570147888E+012.6412610314E+00+
*       0.0000000000E+00               0
GRID*                621               03.1807423689E+012.6847482699E+00+
*       0.0000000000E+00               0
GRID*                622               03.1504395956E+012.4414848107E+00+
*       0.0000000000E+00               0
GRID*                623               03.1371879383E+012.6145851303E+00+
*       0.0000000000E+00               0
GRID*                624               03.1609679172E+012.2993406926E+00+
*       0.0000000000E+00               0
GRID*                625               03.1687576706E+012.1157638359E+00+
*       0.0000000000E+00               0
GRID*                626               03.1780561995E+012.2845838550E+00+
*       0.0000000000E+00               0
GRID*                627               03.1872735016E+011.9269563957E+00+
*       0.0000000000E+00               0
GRID*                628               03.2036465311E+012.0229055119E+00+
*       0.0000000000E+00               0
GRID*                629               03.1753963402E+011.9958211519E+00+
*       0.0000000000E+00               0
GRID*                630               03.2062138867E+012.6720437397E+00+
*       0.0000000000E+00               0
GRID*                631               03.1957379639E+012.4554561816E+00+
*       0.0000000000E+00               0
GRID*                632               03.2324366256E+012.7153192917E+00+
*       0.0000000000E+00               0
GRID*                633               03.2478065582E+012.5159776652E+00+
*       0.0000000000E+00               0
GRID*                634               03.2590337021E+012.7885453054E+00+
*       0.0000000000E+00               0
GRID*                635               03.2683088283E+012.3580725322E+00+
*       0.0000000000E+00               0
GRID*                636               03.2902684560E+012.4233590390E+00+
*       0.0000000000E+00               0
GRID*                637               03.2417117517E+012.2848465185E+00+
*       0.0000000000E+00               0
GRID*                638               03.2035277172E+012.2718793249E+00+
*       0.0000000000E+00               0
GRID*                639               03.2213282955E+012.1937778384E+00+
*       0.0000000000E+00               0
GRID*                640               03.0925073542E+011.5567491282E+00+
*       0.0000000000E+00               0
GRID*                641               03.0961089323E+011.7037145192E+00+
*       0.0000000000E+00               0
GRID*                642               03.0796141278E+011.5109029700E+00+
*       0.0000000000E+00               0
GRID*                643               03.0687098527E+011.5839209319E+00+
*       0.0000000000E+00               0
GRID*                644               03.0808094501E+013.6582628444E+00+
*       0.0000000000E+00               0
GRID*                645               03.0609729654E+013.5103789384E+00+
*       0.0000000000E+00               0
GRID*                646               03.0954784180E+013.4399971024E+00+
*       0.0000000000E+00               0
GRID*                647               03.0842221806E+014.0607085680E+00+
*       0.0000000000E+00               0
GRID*                648               03.0333088134E+014.1116974618E+00+
*       0.0000000000E+00               0
GRID*                649               03.1187276332E+013.9903267320E+00+
*       0.0000000000E+00               0
GRID*                650               03.1462400430E+013.7032917267E+00+
*       0.0000000000E+00               0
GRID*                651               03.1366406256E+013.4332868750E+00+
*       0.0000000000E+00               0
GRID*                652               03.1496527735E+014.1057374504E+00+
*       0.0000000000E+00               0
GRID*                653               03.1343589474E+013.1873825744E+00+
*       0.0000000000E+00               0
GRID*                654               03.1272573388E+012.9552168791E+00+
*       0.0000000000E+00               0
GRID*                655               03.1130332244E+013.3419767077E+00+
*       0.0000000000E+00               0
GRID*                656               03.0931967398E+013.1940928018E+00+
*       0.0000000000E+00               0
GRID*                657               03.0991009256E+011.8628154645E+00+
*       0.0000000000E+00               0
GRID*                658               03.0847082770E+011.8112137823E+00+
*       0.0000000000E+00               0
GRID*                659               03.1035480619E+012.0202076626E+00+
*       0.0000000000E+00               0
GRID*                660               03.1074131484E+012.1890011536E+00+
*       0.0000000000E+00               0
GRID*                661               03.0915653568E+012.1391082186E+00+
*       0.0000000000E+00               0
GRID*                662               03.1234687403E+012.7467917448E+00+
*       0.0000000000E+00               0
GRID*                663               03.1168935472E+012.5470155241E+00+
*       0.0000000000E+00               0
GRID*                664               03.1069629477E+012.8876472729E+00+
*       0.0000000000E+00               0
GRID*                665               03.1130215942E+012.3613553096E+00+
*       0.0000000000E+00               0
GRID*                666               03.0993023962E+012.4935619241E+00+
*       0.0000000000E+00               0
GRID*                667               03.0184135310E+012.7901895854E+00+
*       0.0000000000E+00               0
GRID*                668               03.0224808084E+012.6009488645E+00+
*       0.0000000000E+00               0
GRID*                669               03.0369001603E+012.9214392728E+00+
*       0.0000000000E+00               0
GRID*                670               03.0543323804E+012.8112996976E+00+
*       0.0000000000E+00               0
GRID*                671               03.0543105982E+013.0171406189E+00+
*       0.0000000000E+00               0
GRID*                672               03.0183917488E+012.9960305067E+00+
*       0.0000000000E+00               0
GRID*                673               03.0137926981E+013.2244856072E+00+
*       0.0000000000E+00               0
GRID*                674               03.0099972333E+013.7976021873E+00+
*       0.0000000000E+00               0
GRID*                675               03.0562601558E+013.2096966953E+00+
*       0.0000000000E+00               0
GRID*                676               03.0736923758E+013.0995571200E+00+
*       0.0000000000E+00               0
GRID*                677               03.0415911878E+013.4279624373E+00+
*       0.0000000000E+00               0
GRID*                678               03.0185055078E+013.5251678503E+00+
*       0.0000000000E+00               0
GRID*                679               03.0912471822E+013.0015367254E+00+
*       0.0000000000E+00               0
GRID*                680               03.0682801097E+011.7508631716E+00+
*       0.0000000000E+00               0
GRID*                681               03.0712721031E+011.9099641170E+00+
*       0.0000000000E+00               0
GRID*                682               03.0552736788E+011.6826712665E+00+
*       0.0000000000E+00               0
GRID*                683               03.0433955987E+011.7384705493E+00+
*       0.0000000000E+00               0
GRID*                684               03.0269691867E+012.2675139906E+00+
*       0.0000000000E+00               0
GRID*                685               03.0272359183E+012.1344493654E+00+
*       0.0000000000E+00               0
GRID*                686               03.0388017674E+012.2300694296E+00+
*       0.0000000000E+00               0
GRID*                687               03.0232873550E+012.4247167161E+00+
*       0.0000000000E+00               0
GRID*                688               03.0377284891E+012.5393662032E+00+
*       0.0000000000E+00               0
GRID*                689               03.0315389045E+011.9987615578E+00+
*       0.0000000000E+00               0
GRID*                690               03.0394266229E+011.8750659088E+00+
*       0.0000000000E+00               0
GRID*                691               03.0469562174E+011.9733091553E+00+
*       0.0000000000E+00               0
GRID*                692               03.0758190934E+012.0786383028E+00+
*       0.0000000000E+00               0
GRID*                693               03.0796841799E+012.2474317937E+00+
*       0.0000000000E+00               0
GRID*                694               03.0593909261E+012.0182876920E+00+
*       0.0000000000E+00               0
GRID*                695               03.0515032078E+012.1419833411E+00+
*       0.0000000000E+00               0
GRID*                696               03.0874585837E+012.7931115911E+00+
*       0.0000000000E+00               0
GRID*                697               03.0699890144E+012.7156515163E+00+
*       0.0000000000E+00               0
GRID*                698               03.0857047799E+012.6017620638E+00+
*       0.0000000000E+00               0
GRID*                699               03.0525785765E+012.6199501703E+00+
*       0.0000000000E+00               0
GRID*                700               03.0533851232E+012.4437180219E+00+
*       0.0000000000E+00               0
GRID*                701               03.0818328269E+012.4161018493E+00+
*       0.0000000000E+00               0
GRID*                702               03.0660865636E+012.3556319334E+00+
*       0.0000000000E+00               0
GRID*                703               03.0512364761E+012.2750479663E+00+
*       0.0000000000E+00               0
GRID*                704               03.2389522625E+013.4340640602E+00+
*       0.0000000000E+00               0
GRID*                705               03.2550119434E+013.2282341063E+00+
*       0.0000000000E+00               0
GRID*                706               03.2221982117E+013.6061530858E+00+
*       0.0000000000E+00               0
GRID*                707               03.2050085995E+013.8157308886E+00+
*       0.0000000000E+00               0
GRID*                708               03.2496060665E+013.6406703064E+00+
*       0.0000000000E+00               0
GRID*                709               03.2771912302E+013.7465467279E+00+
*       0.0000000000E+00               0
GRID*                710               03.2604371794E+013.9186357536E+00+
*       0.0000000000E+00               0
GRID*                711               03.2663748700E+014.6046712765E+00+
*       0.0000000000E+00               0
GRID*                712               03.2551246339E+014.1914245408E+00+
*       0.0000000000E+00               0
GRID*                713               03.2992725792E+014.4377589108E+00+
*       0.0000000000E+00               0
GRID*                714               03.2458249924E+016.4532844320E+00+
*       0.0000000000E+00               0
GRID*                715               03.3066257103E+017.2314498147E+00+
*       0.0000000000E+00               0
GRID*                716               03.2695929710E+015.8100004114E+00+
*       0.0000000000E+00               0
GRID*                717               03.2562115952E+015.0758444352E+00+
*       0.0000000000E+00               0
GRID*                718               03.3239041911E+015.5851616226E+00+
*       0.0000000000E+00               0
GRID*                719               03.1781323965E+015.9439672446E+00+
*       0.0000000000E+00               0
GRID*                720               03.2275394702E+014.0855481192E+00+
*       0.0000000000E+00               0
GRID*                721               03.1996960540E+014.0885196758E+00+
*       0.0000000000E+00               0
GRID*                722               03.2120636499E+014.8295100652E+00+
*       0.0000000000E+00               0
GRID*                723               03.1721836442E+014.3755546810E+00+
*       0.0000000000E+00               0
GRID*                724               03.1400335418E+015.3366320380E+00+
*       0.0000000000E+00               0
GRID*                725               03.1620203694E+014.8467278398E+00+
*       0.0000000000E+00               0
GRID*                726               03.5548397956E+013.7932952647E+00+
*       0.0000000000E+00               0
GRID*                727               03.6023705384E+013.9631247358E+00+
*       0.0000000000E+00               0
GRID*                728               03.5140445858E+014.0541164691E+00+
*       0.0000000000E+00               0
GRID*                729               03.5066231231E+013.5585988379E+00+
*       0.0000000000E+00               0
GRID*                730               03.3837664660E+013.6972339115E+00+
*       0.0000000000E+00               0
GRID*                731               03.3494596386E+013.7754471255E+00+
*       0.0000000000E+00               0
GRID*                732               03.3613375293E+013.4017821314E+00+
*       0.0000000000E+00               0
GRID*                733               03.4652975440E+013.3892632191E+00+
*       0.0000000000E+00               0
GRID*                734               03.4307361350E+013.5714944799E+00+
*       0.0000000000E+00               0
GRID*                735               03.4302057657E+013.1413376567E+00+
*       0.0000000000E+00               0
GRID*                736               03.3299554591E+014.0477055403E+00+
*       0.0000000000E+00               0
GRID*                737               03.3412056953E+014.4609522760E+00+
*       0.0000000000E+00               0
GRID*                738               03.4188582443E+013.9451594740E+00+
*       0.0000000000E+00               0
GRID*                739               03.3075265225E+013.7522537603E+00+
*       0.0000000000E+00               0
GRID*                740               03.4597343567E+014.4359399497E+00+
*       0.0000000000E+00               0
GRID*                741               03.5079510292E+014.6706363765E+00+
*       0.0000000000E+00               0
GRID*                742               03.3820818077E+014.9517327518E+00+
*       0.0000000000E+00               0
GRID*                743               03.3954631835E+015.6858887279E+00+
*       0.0000000000E+00               0
GRID*                744               03.4127646876E+014.5616793813E+00+
*       0.0000000000E+00               0
GRID*                745               03.3978096799E+012.9895130917E+00+
*       0.0000000000E+00               0
GRID*                746               03.2966954096E+013.4742883131E+00+
*       0.0000000000E+00               0
GRID*                747               03.3712576828E+013.1240197797E+00+
*       0.0000000000E+00               0
GRID*                748               03.3369508554E+013.2022329938E+00+
*       0.0000000000E+00               0
GRID*                749               03.3734230059E+012.7899639541E+00+
*       0.0000000000E+00               0
GRID*                750               03.3483385375E+012.6697914662E+00+
*       0.0000000000E+00               0
GRID*                751               03.3103210315E+012.4496230762E+00+
*       0.0000000000E+00               0
GRID*                752               03.2944562103E+012.6154677162E+00+
*       0.0000000000E+00               0
GRID*                753               03.3321574260E+012.5284220219E+00+
*       0.0000000000E+00               0
GRID*                754               03.3306898973E+012.7831011977E+00+
*       0.0000000000E+00               0
GRID*                755               03.3111709207E+013.2454774912E+00+
*       0.0000000000E+00               0
GRID*                756               03.3210910741E+012.9677151394E+00+
*       0.0000000000E+00               0
GRID*                757               03.2808356283E+013.2397704588E+00+
*       0.0000000000E+00               0
GRID*                758               03.3049099626E+012.8263456951E+00+
*       0.0000000000E+00               0
GRID*                759               03.2694874544E+012.9994232843E+00+
*       0.0000000000E+00               0
GRID*                760               03.2848573871E+012.8000816579E+00+
*       0.0000000000E+00               0
GRID*                761               03.5907947093E+019.6142983354E+00+
*       0.0000000000E+00               0
GRID*                762               03.6252083964E+011.0942722343E+01+
*       0.0000000000E+00               0
GRID*                763               03.4297971209E+016.4103252654E+00+
*       0.0000000000E+00               0
GRID*                764               03.4879747375E+015.7768963945E+00+
*       0.0000000000E+00               0
GRID*                765               03.5255514141E+017.8058864342E+00+
*       0.0000000000E+00               0
GRID*                766               03.4827628825E+017.0772579267E+00+
*       0.0000000000E+00               0
GRID*                767               03.5650972065E+017.2299614395E+00+
*       0.0000000000E+00               0
GRID*                768               03.5384846531E+018.6804195341E+00+
*       0.0000000000E+00               0
GRID*                769               03.6601957943E+018.8924687483E+00+
*       0.0000000000E+00               0
GRID*                770               03.4561503291E+018.5277160212E+00+
*       0.0000000000E+00               0
GRID*                771               03.3902513286E+016.9862502601E+00+
*       0.0000000000E+00               0
GRID*                772               03.3595914719E+017.8983824759E+00+
*       0.0000000000E+00               0
GRID*                773               03.7180023764E+017.9028684220E+00+
*       0.0000000000E+00               0
GRID*                774               03.7703124326E+018.8367472233E+00+
*       0.0000000000E+00               0
GRID*                775               03.6455764394E+017.2366232979E+00+
*       0.0000000000E+00               0
GRID*                776               03.6027879078E+016.5079947905E+00+
*       0.0000000000E+00               0
GRID*                777               03.8229298893E+017.0178829369E+00+
*       0.0000000000E+00               0
GRID*                778               03.8917826012E+016.3420808259E+00+
*       0.0000000000E+00               0
GRID*                779               03.8969717266E+017.1713447861E+00+
*       0.0000000000E+00               0
GRID*                780               03.7556930777E+017.1809017730E+00+
*       0.0000000000E+00               0
GRID*                781               03.7505039523E+016.3516378128E+00+
*       0.0000000000E+00               0
GRID*                782               03.5622117908E+015.9318168574E+00+
*       0.0000000000E+00               0
GRID*                783               03.6426910237E+015.9384787159E+00+
*       0.0000000000E+00               0
GRID*                784               03.5278778534E+015.2073803200E+00+
*       0.0000000000E+00               0
GRID*                785               03.5821880825E+014.8255568394E+00+
*       0.0000000000E+00               0
GRID*                786               03.6092262016E+014.4067744139E+00+
*       0.0000000000E+00               0
GRID*                787               03.6291530257E+014.9435183574E+00+
*       0.0000000000E+00               0
GRID*                788               03.6493354816E+014.0810862538E+00+
*       0.0000000000E+00               0
GRID*                789               03.7013779384E+014.3023751113E+00+
*       0.0000000000E+00               0
GRID*                790               03.7069694124E+015.8865894855E+00+
*       0.0000000000E+00               0
GRID*                791               03.7742062240E+015.7235706494E+00+
*       0.0000000000E+00               0
GRID*                792               03.6663932954E+015.3104115525E+00+
*       0.0000000000E+00               0
GRID*                793               03.6934314144E+014.8916291271E+00+
*       0.0000000000E+00               0
GRID*                794               03.9273633816E+015.6865754448E+00+
*       0.0000000000E+00               0
GRID*                795               04.0240763091E+015.8700495284E+00+
*       0.0000000000E+00               0
GRID*                796               03.7386182081E+014.6692683064E+00+
*       0.0000000000E+00               0
GRID*                797               03.8097870044E+015.0680652683E+00+
*       0.0000000000E+00               0
GRID*                798               03.8533215443E+015.5331135956E+00+
*       0.0000000000E+00               0
GRID*                799               03.9980792098E+018.8029781141E+00+
*       0.0000000000E+00               0
GRID*                800               04.0927106892E+018.6141034124E+00+
*       0.0000000000E+00               0
GRID*                801               04.0473097781E+019.4489767469E+00+
*       0.0000000000E+00               0
GRID*                802               03.9357995678E+017.9076258383E+00+
*       0.0000000000E+00               0
GRID*                803               04.0046522797E+017.2318237274E+00+
*       0.0000000000E+00               0
GRID*                804               03.8903986567E+018.7424991728E+00+
*       0.0000000000E+00               0
GRID*                805               03.8325920746E+019.7320994991E+00+
*       0.0000000000E+00               0
GRID*                806               04.1288973904E+011.7229793299E+01+
*       0.0000000000E+00               0
GRID*                807               04.4177862793E+011.7229793299E+01+
*       0.0000000000E+00               0
GRID*                808               03.9676135366E+011.5027585518E+01+
*       0.0000000000E+00               0
GRID*                809               04.0304572033E+011.0314935564E+01+
*       0.0000000000E+00               0
GRID*                810               04.1250886827E+011.0126060862E+01+
*       0.0000000000E+00               0
GRID*                811               04.0413794676E+011.3240924654E+01+
*       0.0000000000E+00               0
GRID*                812               03.7956426678E+011.3808923573E+01+
*       0.0000000000E+00               0
GRID*                813               03.9888223534E+011.1507141195E+01+
*       0.0000000000E+00               0
GRID*                814               04.1607932221E+011.2725803139E+01+
*       0.0000000000E+00               0
GRID*                815               03.7036597706E+011.2040679923E+01+
*       0.0000000000E+00               0
GRID*                816               03.9110434488E+011.0830057079E+01+
*       0.0000000000E+00               0
GRID*                817               03.7909572247E+011.0924305130E+01+
*       0.0000000000E+00               0
GRID*                818               04.0407611158E+016.5732128432E+00+
*       0.0000000000E+00               0
GRID*                819               04.0795889570E+017.3094938955E+00+
*       0.0000000000E+00               0
GRID*                820               04.0990129864E+015.9477196965E+00+
*       0.0000000000E+00               0
GRID*                821               04.1865171650E+016.2302449432E+00+
*       0.0000000000E+00               0
GRID*                822               04.2443380325E+016.7460055679E+00+
*       0.0000000000E+00               0
GRID*                823               04.3495161569E+017.1715315092E+00+
*       0.0000000000E+00               0
GRID*                824               04.1374098245E+017.8252545201E+00+
*       0.0000000000E+00               0
GRID*                825               04.1866403928E+018.4712531529E+00+
*       0.0000000000E+00               0
GRID*                826               04.1735186606E+017.1666436359E+00+
*       0.0000000000E+00               0
GRID*                827               04.4274304031E+018.2687314527E+00+
*       0.0000000000E+00               0
GRID*                828               04.5883552789E+018.8620894548E+00+
*       0.0000000000E+00               0
GRID*                829               04.3092537744E+018.7796042040E+00+
*       0.0000000000E+00               0
GRID*                830               04.2645546390E+019.5684530963E+00+
*       0.0000000000E+00               0
GRID*                831               04.2477020642E+011.0434411913E+01+
*       0.0000000000E+00               0
GRID*                832               04.7634892932E+011.0199650055E+01+
*       0.0000000000E+00               0
GRID*                833               04.5623020349E+011.1214364748E+01+
*       0.0000000000E+00               0
GRID*                834               04.9687180246E+011.0993415062E+01+
*       0.0000000000E+00               0
GRID*                835               04.9687180246E+011.3570849133E+01+
*       0.0000000000E+00               0
GRID*                836               04.3002591785E+011.2168195373E+01+
*       0.0000000000E+00               0
GRID*                837               04.4753931928E+011.3505755973E+01+
*       0.0000000000E+00               0
GRID*                838               04.9111111111E+011.7294886459E+01+
*       0.0000000000E+00               0
GRID*                839               04.6798291357E+011.6275962674E+01+
*       0.0000000000E+00               0
GRID*                840               02.9618234345E+011.8561193057E+00+
*       0.0000000000E+00               0
GRID*                841               02.9552789698E+011.9720624142E+00+
*       0.0000000000E+00               0
GRID*                842               02.9749466208E+011.8578894118E+00+
*       0.0000000000E+00               0
GRID*                843               02.9889209432E+011.8454208723E+00+
*       0.0000000000E+00               0
GRID*                844               02.9830860886E+011.9654041317E+00+
*       0.0000000000E+00               0
GRID*                845               02.9480754433E+012.1089748281E+00+
*       0.0000000000E+00               0
GRID*                846               02.9404615527E+012.2275781285E+00+
*       0.0000000000E+00               0
GRID*                847               02.9619082398E+012.1147850851E+00+
*       0.0000000000E+00               0
GRID*                848               02.9776113145E+012.1055224759E+00+
*       0.0000000000E+00               0
GRID*                849               02.9704077881E+012.2424348898E+00+
*       0.0000000000E+00               0
GRID*                850               02.9332324567E+012.9814958956E+00+
*       0.0000000000E+00               0
GRID*                851               02.9093621172E+012.6537870040E+00+
*       0.0000000000E+00               0
GRID*                852               02.9206596250E+012.7985216927E+00+
*       0.0000000000E+00               0
GRID*                853               02.9197831276E+012.5232195344E+00+
*       0.0000000000E+00               0
GRID*                854               02.9287820913E+012.3986373523E+00+
*       0.0000000000E+00               0
GRID*                855               02.9430252520E+012.4227567229E+00+
*       0.0000000000E+00               0
GRID*                856               02.9439186223E+012.7767901496E+00+
*       0.0000000000E+00               0
GRID*                857               02.9519845635E+012.5795762340E+00+
*       0.0000000000E+00               0
GRID*                858               02.9636640248E+012.4085170102E+00+
*       0.0000000000E+00               0
GRID*                859               0-2.634228526E-151.5000000000E+01+
*       0.0000000000E+00               0
GRID*                860               00.0000000000E+001.2500000000E+01+
*       0.0000000000E+00               0
GRID*                861               0-4.869827942E-151.7500000000E+01+
*       0.0000000000E+00               0
GRID*                862               05.9339525606E+009.8024088879E+00+
*       0.0000000000E+00               0
GRID*                863               01.1839134662E+019.1885177010E+00+
*       0.0000000000E+00               0
GRID*                864               01.7671116180E+018.0809371261E+00+
*       0.0000000000E+00               0
GRID*                865               02.2792501542E+016.5021042266E+00+
*       0.0000000000E+00               0
GRID*                866               02.6491544984E+014.6933930566E+00+
*       0.0000000000E+00               0
GRID*                867               02.8059117666E+013.5381550322E+00+
*       0.0000000000E+00               0
GRID*                868               02.8370410231E+013.2507427022E+00+
*       0.0000000000E+00               0
GRID*                869               02.8640550874E+012.9778031671E+00+
*       0.0000000000E+00               0
GRID*                870               02.8873784439E+012.7137580613E+00+
*       0.0000000000E+00               0
GRID*                871               02.9082204645E+012.4526231220E+00+
*       0.0000000000E+00               0
GRID*                872               02.9262183920E+012.2034587579E+00+
*       0.0000000000E+00               0
GRID*                873               02.9414461733E+011.9662521572E+00+
*       0.0000000000E+00               0
GRID*                874               02.9686323748E+009.9509032654E+00+
*       0.0000000000E+00               0
GRID*                875               08.8922886695E+009.5506514925E+00+
*       0.0000000000E+00               0
GRID*                876               01.4768381660E+018.7044205033E+00+
*       0.0000000000E+00               0
GRID*                877               02.7298249047E+014.1467630244E+00+
*       0.0000000000E+00               0
GRID*                878               02.0257966754E+017.3760321629E+00+
*       0.0000000000E+00               0
GRID*                879               02.4683823333E+015.6829660264E+00+
*       0.0000000000E+00               0
GRID*                880               02.8507268630E+013.1159852367E+00+
*       0.0000000000E+00               0
GRID*                881               02.8216123621E+013.3959271621E+00+
*       0.0000000000E+00               0
GRID*                882               02.8759160362E+012.8475891408E+00+
*       0.0000000000E+00               0
GRID*                883               02.9481418593E+011.8511203105E+00+
*       0.0000000000E+00               0
GRID*                884               02.9340027196E+012.0859507622E+00+
*       0.0000000000E+00               0
GRID*                885               02.8979423525E+012.5843380500E+00+
*       0.0000000000E+00               0
GRID*                886               02.9173829009E+012.3291844430E+00+
*       0.0000000000E+00               0
GRID*                887               04.6222222222E+012.0000000000E+01+
*       0.0000000000E+00               0
GRID*                888               04.0444444444E+012.0000000000E+01+
*       0.0000000000E+00               0
GRID*                889               03.4666666667E+012.0000000000E+01+
*       0.0000000000E+00               0
GRID*                890               02.8888888889E+012.0000000000E+01+
*       0.0000000000E+00               0
GRID*                891               02.3111111111E+012.0000000000E+01+
*       0.0000000000E+00               0
GRID*                892               01.7333333333E+012.0000000000E+01+
*       0.0000000000E+00               0
GRID*                893               01.1555555556E+012.0000000000E+01+
*       0.0000000000E+00               0
GRID*                894               05.7777777778E+002.0000000000E+01+
*       0.0000000000E+00               0
GRID*                895               08.6666666667E+002.0000000000E+01+
*       0.0000000000E+00               0
GRID*                896               02.8888888889E+002.0000000000E+01+
*       0.0000000000E+00               0
GRID*                897               02.6000000000E+012.0000000000E+01+
*       0.0000000000E+00               0
GRID*                898               03.1777777778E+012.0000000000E+01+
*       0.0000000000E+00               0
GRID*                899               01.4444444444E+012.0000000000E+01+
*       0.0000000000E+00               0
GRID*                900               02.0222222222E+012.0000000000E+01+
*       0.0000000000E+00               0
GRID*                901               03.7555555556E+012.0000000000E+01+
*       0.0000000000E+00               0
GRID*                902               04.3333333333E+012.0000000000E+01+
*       0.0000000000E+00               0
GRID*                903               04.9111111111E+012.0000000000E+01+
*       0.0000000000E+00               0
GRID*                904               03.1703694502E+010.0000000000E+00+
*       0.0000000000E+00               0
GRID*                905               03.1969967445E+010.0000000000E+00+
*       0.0000000000E+00               0
GRID*                906               03.2244118131E+010.0000000000E+00+
*       0.0000000000E+00               0
GRID*                907               03.2530665248E+010.0000000000E+00+
*       0.0000000000E+00               0
GRID*                908               03.2834904132E+010.0000000000E+00+
*       0.0000000000E+00               0
GRID*                909               03.3163318813E+010.0000000000E+00+
*       0.0000000000E+00               0
GRID*                910               03.3524168235E+010.0000000000E+00+
*       0.0000000000E+00               0
GRID*                911               03.3928360386E+010.0000000000E+00+
*       0.0000000000E+00               0
GRID*                912               03.4390808748E+010.0000000000E+00+
*       0.0000000000E+00               0
GRID*                913               03.4932615430E+010.0000000000E+00+
*       0.0000000000E+00               0
GRID*                914               03.5584707656E+010.0000000000E+00+
*       0.0000000000E+00               0
GRID*                915               03.6394081720E+010.0000000000E+00+
*       0.0000000000E+00               0
GRID*                916               03.7434717424E+010.0000000000E+00+
*       0.0000000000E+00               0
GRID*                917               03.8826251854E+010.0000000000E+00+
*       0.0000000000E+00               0
GRID*                918               04.0761178528E+010.0000000000E+00+
*       0.0000000000E+00               0
GRID*                919               04.3516445766E+010.0000000000E+00+
*       0.0000000000E+00               0
GRID*                920               04.7330442144E+010.0000000000E+00+
*       0.0000000000E+00               0
GRID*                921               03.2387391690E+010.0000000000E+00+
*       0.0000000000E+00               0
GRID*                922               03.2107042788E+010.0000000000E+00+
*       0.0000000000E+00               0
GRID*                923               03.1836830973E+010.0000000000E+00+
*       0.0000000000E+00               0
GRID*                924               03.1572472175E+010.0000000000E+00+
*       0.0000000000E+00               0
GRID*                925               03.2682784690E+010.0000000000E+00+
*       0.0000000000E+00               0
GRID*                926               03.2999111473E+010.0000000000E+00+
*       0.0000000000E+00               0
GRID*                927               03.3343743524E+010.0000000000E+00+
*       0.0000000000E+00               0
GRID*                928               03.4159584567E+010.0000000000E+00+
*       0.0000000000E+00               0
GRID*                929               03.3726264310E+010.0000000000E+00+
*       0.0000000000E+00               0
GRID*                930               03.5258661543E+010.0000000000E+00+
*       0.0000000000E+00               0
GRID*                931               03.4661712089E+010.0000000000E+00+
*       0.0000000000E+00               0
GRID*                932               03.5989394688E+010.0000000000E+00+
*       0.0000000000E+00               0
GRID*                933               03.6914399572E+010.0000000000E+00+
*       0.0000000000E+00               0
GRID*                934               03.9793715191E+010.0000000000E+00+
*       0.0000000000E+00               0
GRID*                935               03.8130484639E+010.0000000000E+00+
*       0.0000000000E+00               0
GRID*                936               04.2138812147E+010.0000000000E+00+
*       0.0000000000E+00               0
GRID*                937               04.9665221072E+010.0000000000E+00+
*       0.0000000000E+00               0
GRID*                938               04.5423443955E+010.0000000000E+00+
*       0.0000000000E+00               0
GRID*                939               05.2000000000E+014.6105667530E+00+
*       0.0000000000E+00               0
GRID*                940               05.2000000000E+019.4349047756E+00+
*       0.0000000000E+00               0
GRID*                941               05.2000000000E+011.4589772918E+01+
*       0.0000000000E+00               0
GRID*                942               05.2000000000E+017.0227357643E+00+
*       0.0000000000E+00               0
GRID*                943               05.2000000000E+012.3052833765E+00+
*       0.0000000000E+00               0
GRID*                944               05.2000000000E+011.2012338847E+01+
*       0.0000000000E+00               0
GRID*                945               05.2000000000E+011.7294886459E+01+
*       0.0000000000E+00               0
GRID*                946               03.1421463482E+012.6174090725E-01+
*       0.0000000000E+00               0
GRID*                947               03.1362561779E+015.1752271715E-01+
*       0.0000000000E+00               0
GRID*                948               03.1265878811E+017.6155588501E-01+
*       0.0000000000E+00               0
GRID*                949               03.1133620922E+019.8826640755E-01+
*       0.0000000000E+00               0
GRID*                950               03.0968793509E+011.1925202804E+00+
*       0.0000000000E+00               0
GRID*                951               03.0775119720E+011.3696931031E+00+
*       0.0000000000E+00               0
GRID*                952               03.0557034218E+011.5157290268E+00+
*       0.0000000000E+00               0
GRID*                953               03.0319472617E+011.6273275923E+00+
*       0.0000000000E+00               0
GRID*                954               03.0067817234E+011.7019553820E+00+
*       0.0000000000E+00               0
GRID*                955               02.9807814753E+011.7379061523E+00+
*       0.0000000000E+00               0
GRID*                956               03.1436294195E+011.3124370742E-01+
*       0.0000000000E+00               0
GRID*                957               03.1318824195E+016.4136331247E-01+
*       0.0000000000E+00               0
GRID*                958               03.1396837875E+013.9074884456E-01+
*       0.0000000000E+00               0
GRID*                959               03.0875299793E+011.2847612373E+00+
*       0.0000000000E+00               0
GRID*                960               03.1204031745E+018.7739808345E-01+
*       0.0000000000E+00               0
GRID*                961               03.1055054525E+011.0935127350E+00+
*       0.0000000000E+00               0
GRID*                962               03.0195053169E+011.6693902751E+00+
*       0.0000000000E+00               0
GRID*                963               03.0668841883E+011.4468195613E+00+
*       0.0000000000E+00               0
GRID*                964               03.0440350508E+011.5760148554E+00+
*       0.0000000000E+00               0
GRID*                965               02.9676516086E+011.7410888063E+00+
*       0.0000000000E+00               0
GRID*                966               02.9938500031E+011.7248360920E+00+
*       0.0000000000E+00               0
GRID*                967               0-7.105427358E-152.0000000000E+01+
*       0.0000000000E+00               0
GRID*                968               01.8369703053E-151.0000000000E+01+
*       0.0000000000E+00               0
GRID*                969               05.2000000000E+012.0000000000E+01+
*       0.0000000000E+00               0
GRID*                970               05.2000000000E+010.0000000000E+00+
*       0.0000000000E+00               0
GRID*                971               02.9545351028E+011.7343659401E+00+
*       0.0000000000E+00               0
GRID*                972               03.1441249847E+010.0000000000E+00+
*       0.0000000000E+00               0
GRID*                973               03.0211728483E+015.3089294485E-01+
*       0.0000000000E+00               0
GRID*                974               03.0293760818E+014.8165706118E-01+
*       0.0000000000E+00               0
GRID*                975               03.0385930960E+014.5938158459E-01+
*       0.0000000000E+00               0
GRID*                976               03.0494655141E+014.5778832209E-01+
*       0.0000000000E+00               0
GRID*                977               03.0597146592E+014.4456339120E-01+
*       0.0000000000E+00               0
GRID*                978               03.0706782611E+014.2251369070E-01+
*       0.0000000000E+00               0
GRID*                979               03.0827784410E+014.0922387549E-01+
*       0.0000000000E+00               0
GRID*                980               03.0983624648E+013.8481474690E-01+
*       0.0000000000E+00               0
GRID*                981               03.1181154920E+013.2181197794E-01+
*       0.0000000000E+00               0
GRID*                982               03.0001649734E+011.4783660691E+00+
*       0.0000000000E+00               0
GRID*                983               03.0279004744E+016.7606513429E-01+
*       0.0000000000E+00               0
GRID*                984               03.0175005930E+018.9346439880E-01+
*       0.0000000000E+00               0
GRID*                985               03.0085534182E+011.1733109776E+00+
*       0.0000000000E+00               0
GRID*                986               03.1115368578E+015.5406931866E-01+
*       0.0000000000E+00               0
GRID*                987               03.0888660475E+015.7100463278E-01+
*       0.0000000000E+00               0
GRID*                988               03.0734761501E+016.0157697855E-01+
*       0.0000000000E+00               0
GRID*                989               03.0606976816E+016.4625475042E-01+
*       0.0000000000E+00               0
GRID*                990               03.0451587867E+016.2571680294E-01+
*       0.0000000000E+00               0
GRID*                991               03.0444997180E+015.2633197369E-01+
*       0.0000000000E+00               0
GRID*                992               03.0345768864E+015.4876734342E-01+
*       0.0000000000E+00               0
GRID*                993               03.0659110628E+015.2587121431E-01+
*       0.0000000000E+00               0
GRID*                994               03.0542018772E+015.3646172732E-01+
*       0.0000000000E+00               0
GRID*                995               03.0759502466E+015.0486617581E-01+
*       0.0000000000E+00               0
GRID*                996               03.1014149382E+017.6872894743E-01+
*       0.0000000000E+00               0
GRID*                997               03.0763838045E+017.7929229420E-01+
*       0.0000000000E+00               0
GRID*                998               03.0477728791E+018.2891165565E-01+
*       0.0000000000E+00               0
GRID*                999               03.0381121436E+011.1041404884E+00+
*       0.0000000000E+00               0
GRID*               1000               03.0317225499E+011.3638352464E+00+
*       0.0000000000E+00               0
GRID*               1001               03.0543177255E+011.2874142393E+00+
*       0.0000000000E+00               0
GRID*               1002               03.0689432912E+011.0743889893E+00+
*       0.0000000000E+00               0
GRID*               1003               03.0916482162E+019.5897849851E-01+
*       0.0000000000E+00               0
GRID*               1004               03.0535839163E+013.7927256466E-01+
*       0.0000000000E+00               0
GRID*               1005               03.0489906623E+013.2583074571E-01+
*       0.0000000000E+00               0
GRID*               1006               03.0459057586E+012.7465535325E-01+
*       0.0000000000E+00               0
GRID*               1007               03.0398501531E+012.3381613767E-01+
*       0.0000000000E+00               0
GRID*               1008               03.0392854478E+012.0964785859E-01+
*       0.0000000000E+00               0
GRID*               1009               03.0374652809E+011.9338447879E-01+
*       0.0000000000E+00               0
GRID*               1010               03.0354122961E+011.7286586944E-01+
*       0.0000000000E+00               0
GRID*               1011               03.0333957868E+011.5186286514E-01+
*       0.0000000000E+00               0
GRID*               1012               03.0311760850E+011.3187949077E-01+
*       0.0000000000E+00               0
GRID*               1013               03.0286631095E+011.0932334293E-01+
*       0.0000000000E+00               0
GRID*               1014               03.0264290110E+018.2892475719E-02+
*       0.0000000000E+00               0
GRID*               1015               03.0242271745E+015.9007741179E-02+
*       0.0000000000E+00               0
GRID*               1016               03.0275479543E+014.9349658371E-02+
*       0.0000000000E+00               0
GRID*               1017               03.0411902562E+011.8693542492E-02+
*       0.0000000000E+00               0
GRID*               1018               03.0402492550E+014.0105129102E-02+
*       0.0000000000E+00               0
GRID*               1019               03.0391801406E+016.4588087766E-02+
*       0.0000000000E+00               0
GRID*               1020               03.0381438773E+019.0883259197E-02+
*       0.0000000000E+00               0
GRID*               1021               03.0371583789E+011.1816409368E-01+
*       0.0000000000E+00               0
GRID*               1022               03.0362670691E+011.4573197351E-01+
*       0.0000000000E+00               0
GRID*               1023               03.0362561780E+016.7611681033E-02+
*       0.0000000000E+00               0
GRID*               1024               03.0346537087E+014.5721082186E-02+
*       0.0000000000E+00               0
GRID*               1025               03.0334191205E+012.8862414299E-02+
*       0.0000000000E+00               0
GRID*               1026               03.0323812390E+011.4335895101E-02+
*       0.0000000000E+00               0
GRID*               1027               03.0352732807E+012.5529794527E-02+
*       0.0000000000E+00               0
GRID*               1028               03.0368994981E+011.5581359089E-02+
*       0.0000000000E+00               0
GRID*               1029               03.0389690970E+011.8792517801E-02+
*       0.0000000000E+00               0
GRID*               1030               03.0373501524E+013.9608541807E-02+
*       0.0000000000E+00               0
GRID*               1031               03.0354278844E+011.0781834930E-02+
*       0.0000000000E+00               0
GRID*               1032               03.0340370384E+011.3158482561E-02+
*       0.0000000000E+00               0
GRID*               1033               03.0341829155E+011.2404302884E-01+
*       0.0000000000E+00               0
GRID*               1034               03.0351232571E+019.5164771384E-02+
*       0.0000000000E+00               0
GRID*               1035               03.0319798199E+011.0109418621E-01+
*       0.0000000000E+00               0
GRID*               1036               03.0330051240E+016.8676966862E-02+
*       0.0000000000E+00               0
GRID*               1037               03.0326532411E+014.3953086781E-02+
*       0.0000000000E+00               0
GRID*               1038               03.0315604792E+012.9823992950E-02+
*       0.0000000000E+00               0
GRID*               1039               03.0306806258E+011.4093102102E-02+
*       0.0000000000E+00               0
GRID*               1040               03.0297188939E+017.6853884672E-02+
*       0.0000000000E+00               0
GRID*               1041               03.0306738825E+014.9322217382E-02+
*       0.0000000000E+00               0
GRID*               1042               03.0295153958E+012.8935396072E-02+
*       0.0000000000E+00               0
GRID*               1043               03.0418983134E+016.0693160602E-02+
*       0.0000000000E+00               0
GRID*               1044               03.0436992379E+017.9633459811E-02+
*       0.0000000000E+00               0
GRID*               1045               03.0461062174E+019.6831661212E-02+
*       0.0000000000E+00               0
GRID*               1046               03.0479303226E+011.3354849943E-01+
*       0.0000000000E+00               0
GRID*               1047               03.0512091233E+011.6720978348E-01+
*       0.0000000000E+00               0
GRID*               1048               03.0548761714E+012.0701177358E-01+
*       0.0000000000E+00               0
GRID*               1049               03.0590661843E+012.5540129900E-01+
*       0.0000000000E+00               0
GRID*               1050               03.0632037259E+013.3581819274E-01+
*       0.0000000000E+00               0
GRID*               1051               03.0402049604E+011.8771685269E-01+
*       0.0000000000E+00               0
GRID*               1052               03.0431158244E+011.8317904690E-01+
*       0.0000000000E+00               0
GRID*               1053               03.0465811231E+011.7734176683E-01+
*       0.0000000000E+00               0
GRID*               1054               03.0552608619E+013.1231952231E-01+
*       0.0000000000E+00               0
GRID*               1055               03.0520732894E+012.6589456475E-01+
*       0.0000000000E+00               0
GRID*               1056               03.0417737160E+012.0945272814E-01+
*       0.0000000000E+00               0
GRID*               1057               03.0484170799E+012.1944746849E-01+
*       0.0000000000E+00               0
GRID*               1058               03.0445971507E+012.0505694485E-01+
*       0.0000000000E+00               0
GRID*               1059               03.0434460764E+012.3537206676E-01+
*       0.0000000000E+00               0
GRID*               1060               03.0441859174E+011.5274474434E-01+
*       0.0000000000E+00               0
GRID*               1061               03.0445736370E+011.2473034933E-01+
*       0.0000000000E+00               0
GRID*               1062               03.0409931370E+018.5741246920E-02+
*       0.0000000000E+00               0
GRID*               1063               03.0391789243E+011.3980833746E-01+
*       0.0000000000E+00               0
GRID*               1064               03.0420294826E+011.3283799883E-01+
*       0.0000000000E+00               0
GRID*               1065               03.0411575415E+011.6051136912E-01+
*       0.0000000000E+00               0
GRID*               1066               03.0382806490E+011.6665009316E-01+
*       0.0000000000E+00               0
GRID*               1067               03.0400741521E+011.1224788816E-01+
*       0.0000000000E+00               0
GRID*               1068               03.0428882997E+011.0528235024E-01+
*       0.0000000000E+00               0
GRID*               1069               03.0560336380E+013.9338660054E-02+
*       0.0000000000E+00               0
GRID*               1070               03.0547169001E+018.3483071787E-02+
*       0.0000000000E+00               0
GRID*               1071               03.0521646993E+011.2188684687E-01+
*       0.0000000000E+00               0
GRID*               1072               03.0443809441E+015.4699069132E-02+
*       0.0000000000E+00               0
GRID*               1073               03.0468338114E+015.1014235558E-02+
*       0.0000000000E+00               0
GRID*               1074               03.0494040466E+015.1834080185E-02+
*       0.0000000000E+00               0
GRID*               1075               03.0525337034E+014.8800218258E-02+
*       0.0000000000E+00               0
GRID*               1076               03.0501163970E+018.6821027688E-02+
*       0.0000000000E+00               0
GRID*               1077               03.0476406498E+017.0993166148E-02+
*       0.0000000000E+00               0
GRID*               1078               03.0457368294E+017.0194139294E-02+
*       0.0000000000E+00               0
GRID*               1079               03.0426637561E+013.6253576460E-02+
*       0.0000000000E+00               0
GRID*               1080               03.0452541162E+012.6443359512E-02+
*       0.0000000000E+00               0
GRID*               1081               03.0430823275E+011.6128193912E-02+
*       0.0000000000E+00               0
GRID*               1082               03.0482662121E+012.6077309590E-02+
*       0.0000000000E+00               0
GRID*               1083               03.0507715722E+012.5986635018E-02+
*       0.0000000000E+00               0
GRID*               1084               03.0672890075E+015.9228390690E-02+
*       0.0000000000E+00               0
GRID*               1085               03.0646817763E+011.2916809419E-01+
*       0.0000000000E+00               0
GRID*               1086               03.0606528181E+011.8971869402E-01+
*       0.0000000000E+00               0
GRID*               1087               03.0569555386E+011.3795340995E-01+
*       0.0000000000E+00               0
GRID*               1088               03.0604398847E+016.4024473110E-02+
*       0.0000000000E+00               0
GRID*               1089               03.0680541197E+012.1976801322E-01+
*       0.0000000000E+00               0
GRID*               1090               03.0750768985E+013.1111784460E-01+
*       0.0000000000E+00               0
GRID*               1091               03.0745211918E+011.0676047999E-01+
*       0.0000000000E+00               0
GRID*               1092               03.1011986046E+011.8624936689E-01+
*       0.0000000000E+00               0
GRID*               1093               03.0870841113E+012.7164414409E-01+
*       0.0000000000E+00               0
GRID*               1094               03.0870511237E+011.2958809970E-01+
*       0.0000000000E+00               0
GRID*               1095               03.0782880121E+012.0825058392E-01+
*       0.0000000000E+00               0
GRID*               1096               03.0162289540E+018.1820731480E-02+
*       0.0000000000E+00               0
GRID*               1097               03.0190245251E+011.1137931206E-01+
*       0.0000000000E+00               0
GRID*               1098               03.0215326401E+011.3304745678E-01+
*       0.0000000000E+00               0
GRID*               1099               03.0240784337E+011.5539904133E-01+
*       0.0000000000E+00               0
GRID*               1100               03.0263049621E+011.8229845800E-01+
*       0.0000000000E+00               0
GRID*               1101               03.0282964648E+012.1059805514E-01+
*       0.0000000000E+00               0
GRID*               1102               03.0305326139E+012.3698073452E-01+
*       0.0000000000E+00               0
GRID*               1103               03.0329712334E+012.6385784417E-01+
*       0.0000000000E+00               0
GRID*               1104               03.0362325913E+012.9182346692E-01+
*       0.0000000000E+00               0
GRID*               1105               03.0411878381E+013.2416421559E-01+
*       0.0000000000E+00               0
GRID*               1106               03.0447455488E+013.8740202565E-01+
*       0.0000000000E+00               0
GRID*               1107               03.0223267512E+014.3700210924E-01+
*       0.0000000000E+00               0
GRID*               1108               03.0240512426E+013.7200616704E-01+
*       0.0000000000E+00               0
GRID*               1109               03.0255621363E+013.1851358282E-01+
*       0.0000000000E+00               0
GRID*               1110               03.0264376473E+012.7654499711E-01+
*       0.0000000000E+00               0
GRID*               1111               03.0271807421E+012.4168379325E-01+
*       0.0000000000E+00               0
GRID*               1112               03.0308815369E+013.0112685052E-01+
*       0.0000000000E+00               0
GRID*               1113               03.0295803437E+012.6344033551E-01+
*       0.0000000000E+00               0
GRID*               1114               03.0349921983E+013.3123605618E-01+
*       0.0000000000E+00               0
GRID*               1115               03.0303633554E+013.5323338394E-01+
*       0.0000000000E+00               0
GRID*               1116               03.0301430777E+014.1334972431E-01+
*       0.0000000000E+00               0
GRID*               1117               03.0366058434E+013.7765316375E-01+
*       0.0000000000E+00               0
GRID*               1118               03.0234676521E+012.4681011503E-01+
*       0.0000000000E+00               0
GRID*               1119               03.0205843012E+012.0846536379E-01+
*       0.0000000000E+00               0
GRID*               1120               03.0171741283E+011.7440982982E-01+
*       0.0000000000E+00               0
GRID*               1121               03.0148573722E+011.3143169590E-01+
*       0.0000000000E+00               0
GRID*               1122               03.0111174555E+019.0905770729E-02+
*       0.0000000000E+00               0
GRID*               1123               03.0209195507E+011.6610873182E-01+
*       0.0000000000E+00               0
GRID*               1124               03.0249074898E+012.1240696077E-01+
*       0.0000000000E+00               0
GRID*               1125               03.0234034920E+011.8454541819E-01+
*       0.0000000000E+00               0
GRID*               1126               03.0187929663E+011.4334085225E-01+
*       0.0000000000E+00               0
GRID*               1127               03.0110130077E+014.3529133555E-01+
*       0.0000000000E+00               0
GRID*               1128               03.0090585827E+013.2714275065E-01+
*       0.0000000000E+00               0
GRID*               1129               03.0133426757E+012.6270580869E-01+
*       0.0000000000E+00               0
GRID*               1130               03.0156084121E+012.1627394485E-01+
*       0.0000000000E+00               0
GRID*               1131               03.0187676457E+013.1439151346E-01+
*       0.0000000000E+00               0
GRID*               1132               03.0172725995E+013.7770913212E-01+
*       0.0000000000E+00               0
GRID*               1133               03.0190987888E+012.5485265926E-01+
*       0.0000000000E+00               0
GRID*               1134               03.0227462199E+012.8152127547E-01+
*       0.0000000000E+00               0
GRID*               1135               03.0065414220E+012.4435267894E-01+
*       0.0000000000E+00               0
GRID*               1136               03.0111203328E+012.1739021175E-01+
*       0.0000000000E+00               0
GRID*               1137               03.0125807790E+011.7776368328E-01+
*       0.0000000000E+00               0
GRID*               1138               03.0074132001E+011.8642879511E-01+
*       0.0000000000E+00               0
GRID*               1139               03.0092848872E+011.3896570681E-01+
*       0.0000000000E+00               0
GRID*               1140               03.0054053224E+019.9619654517E-02+
*       0.0000000000E+00               0
GRID*               1141               03.0044101612E+011.4652182396E-01+
*       0.0000000000E+00               0
GRID*               1142               03.0279387816E+011.4795434971E-01+
*       0.0000000000E+00               0
GRID*               1143               03.0248833572E+011.1716312102E-01+
*       0.0000000000E+00               0
GRID*               1144               03.0207463862E+017.3834461342E-02+
*       0.0000000000E+00               0
GRID*               1145               03.0219549621E+011.0469300954E-01+
*       0.0000000000E+00               0
GRID*               1146               03.0236611669E+018.7418310403E-02+
*       0.0000000000E+00               0
GRID*               1147               03.0369761007E+012.2019943078E-01+
*       0.0000000000E+00               0
GRID*               1148               03.0338899692E+012.3013461421E-01+
*       0.0000000000E+00               0
GRID*               1149               03.0315771967E+012.0622953880E-01+
*       0.0000000000E+00               0
GRID*               1150               03.0346490092E+012.0010873374E-01+
*       0.0000000000E+00               0
GRID*               1151               03.0325932594E+011.7830509234E-01+
*       0.0000000000E+00               0
GRID*               1152               03.0309858258E+011.5836423864E-01+
*       0.0000000000E+00               0
GRID*               1153               03.0296407458E+011.8087612182E-01+
*       0.0000000000E+00               0
GRID*               1154               03.0367439097E+012.5131671029E-01+
*       0.0000000000E+00               0
GRID*               1155               03.0405254072E+012.6785215834E-01+
*       0.0000000000E+00               0
GRID*               1156               02.9828327597E+011.4952706006E+00+
*       0.0000000000E+00               0
GRID*               1157               02.9882636053E+011.3656169645E+00+
*       0.0000000000E+00               0
GRID*               1158               02.9904732242E+011.6081361108E+00+
*       0.0000000000E+00               0
GRID*               1159               03.0034733482E+011.5901607260E+00+
*       0.0000000000E+00               0
GRID*               1160               02.9731410104E+011.6250406424E+00+
*       0.0000000000E+00               0
GRID*               1161               02.9924578277E+011.2130894187E+00+
*       0.0000000000E+00               0
GRID*               1162               03.0043591958E+011.3258385233E+00+
*       0.0000000000E+00               0
GRID*               1163               02.9975152468E+011.0608522866E+00+
*       0.0000000000E+00               0
GRID*               1164               03.0019888341E+019.2092899724E-01+
*       0.0000000000E+00               0
GRID*               1165               03.0130270056E+011.0333876882E+00+
*       0.0000000000E+00               0
GRID*               1166               03.0245366613E+016.0347903957E-01+
*       0.0000000000E+00               0
GRID*               1167               03.0278748673E+015.3983014414E-01+
*       0.0000000000E+00               0
GRID*               1168               03.0312386804E+016.1241623886E-01+
*       0.0000000000E+00               0
GRID*               1169               03.0060388764E+017.4721676397E-01+
*       0.0000000000E+00               0
GRID*               1170               03.0112388171E+016.3851713172E-01+
*       0.0000000000E+00               0
GRID*               1171               03.0078750041E+015.6593103700E-01+
*       0.0000000000E+00               0
GRID*               1172               03.0227005337E+017.8476476654E-01+
*       0.0000000000E+00               0
GRID*               1173               03.0415464070E+014.9285677914E-01+
*       0.0000000000E+00               0
GRID*               1174               03.0440293051E+014.5858495334E-01+
*       0.0000000000E+00               0
GRID*               1175               03.0469826160E+014.9206014789E-01+
*       0.0000000000E+00               0
GRID*               1176               03.0398678365E+015.8724207318E-01+
*       0.0000000000E+00               0
GRID*               1177               03.0365296305E+016.5089096862E-01+
*       0.0000000000E+00               0
GRID*               1178               03.0252744650E+015.0627500301E-01+
*       0.0000000000E+00               0
GRID*               1179               03.0319764841E+015.1521220230E-01+
*       0.0000000000E+00               0
GRID*               1180               03.0395383022E+015.3754965856E-01+
*       0.0000000000E+00               0
GRID*               1181               03.0448292523E+015.7602438832E-01+
*       0.0000000000E+00               0
GRID*               1182               03.0365849912E+015.0407446401E-01+
*       0.0000000000E+00               0
GRID*               1183               03.0339845889E+014.7051932288E-01+
*       0.0000000000E+00               0
GRID*               1184               03.1271858350E+014.1966734578E-01+
*       0.0000000000E+00               0
GRID*               1185               03.1301309201E+012.9177644035E-01+
*       0.0000000000E+00               0
GRID*               1186               03.1238965179E+015.3579601615E-01+
*       0.0000000000E+00               0
GRID*               1187               03.1148261749E+014.3794064830E-01+
*       0.0000000000E+00               0
GRID*               1188               03.0518336956E+014.9712502470E-01+
*       0.0000000000E+00               0
GRID*               1189               03.0493507976E+015.3139685051E-01+
*       0.0000000000E+00               0
GRID*               1190               03.0569582682E+014.9051255926E-01+
*       0.0000000000E+00               0
GRID*               1191               03.0628128610E+014.8521730275E-01+
*       0.0000000000E+00               0
GRID*               1192               03.0600564700E+015.3116647081E-01+
*       0.0000000000E+00               0
GRID*               1193               03.0545900867E+014.5117585664E-01+
*       0.0000000000E+00               0
GRID*               1194               03.0574497794E+015.9135823887E-01+
*       0.0000000000E+00               0
GRID*               1195               03.0529282341E+016.3598577668E-01+
*       0.0000000000E+00               0
GRID*               1196               03.0496803319E+015.8108926513E-01+
*       0.0000000000E+00               0
GRID*               1197               03.0633043722E+015.8606298236E-01+
*       0.0000000000E+00               0
GRID*               1198               03.0696936065E+015.6372409643E-01+
*       0.0000000000E+00               0
GRID*               1199               03.0670869159E+016.2391586448E-01+
*       0.0000000000E+00               0
GRID*               1200               03.1049496613E+014.6944203278E-01+
*       0.0000000000E+00               0
GRID*               1201               03.1082389784E+013.5331336242E-01+
*       0.0000000000E+00               0
GRID*               1202               03.1002014526E+015.6253697572E-01+
*       0.0000000000E+00               0
GRID*               1203               03.0936142561E+014.7790968984E-01+
*       0.0000000000E+00               0
GRID*               1204               03.0682946620E+014.7419245251E-01+
*       0.0000000000E+00               0
GRID*               1205               03.0651964602E+014.3353854095E-01+
*       0.0000000000E+00               0
GRID*               1206               03.0824081470E+015.3793540430E-01+
*       0.0000000000E+00               0
GRID*               1207               03.0811710988E+015.8629080567E-01+
*       0.0000000000E+00               0
GRID*               1208               03.0747131984E+015.5322157718E-01+
*       0.0000000000E+00               0
GRID*               1209               03.0858222442E+014.9011425413E-01+
*       0.0000000000E+00               0
GRID*               1210               03.0905704529E+013.9701931120E-01+
*       0.0000000000E+00               0
GRID*               1211               03.0793643438E+014.5704502565E-01+
*       0.0000000000E+00               0
GRID*               1212               03.0733142538E+014.6368993326E-01+
*       0.0000000000E+00               0
GRID*               1213               03.0767283511E+014.1586878310E-01+
*       0.0000000000E+00               0
GRID*               1214               03.0709306547E+015.1536869506E-01+
*       0.0000000000E+00               0
GRID*               1215               03.1190623694E+016.5781260154E-01+
*       0.0000000000E+00               0
GRID*               1216               03.1140014096E+017.6514241592E-01+
*       0.0000000000E+00               0
GRID*               1217               03.1073885153E+018.7849767608E-01+
*       0.0000000000E+00               0
GRID*               1218               03.1064758980E+016.6139913305E-01+
*       0.0000000000E+00               0
GRID*               1219               03.0951404928E+016.6986679011E-01+
*       0.0000000000E+00               0
GRID*               1220               03.0826249260E+016.7514846349E-01+
*       0.0000000000E+00               0
GRID*               1221               03.0888993713E+017.7401062082E-01+
*       0.0000000000E+00               0
GRID*               1222               03.0749299773E+016.9043463638E-01+
*       0.0000000000E+00               0
GRID*               1223               03.0685407430E+017.1277352231E-01+
*       0.0000000000E+00               0
GRID*               1224               03.0378366767E+017.5248839497E-01+
*       0.0000000000E+00               0
GRID*               1225               03.0326367360E+018.6118802722E-01+
*       0.0000000000E+00               0
GRID*               1226               03.0542352804E+017.3758320303E-01+
*       0.0000000000E+00               0
GRID*               1227               03.0620783418E+018.0410197492E-01+
*       0.0000000000E+00               0
GRID*               1228               03.0464658329E+017.2731422929E-01+
*       0.0000000000E+00               0
GRID*               1229               03.0278063683E+019.9880244362E-01+
*       0.0000000000E+00               0
GRID*               1230               03.0233327809E+011.1387257330E+00+
*       0.0000000000E+00               0
GRID*               1231               03.0429425114E+019.6652607205E-01+
*       0.0000000000E+00               0
GRID*               1232               03.0160561175E+011.5528468308E+00+
*       0.0000000000E+00               0
GRID*               1233               03.0159437617E+011.4211006577E+00+
*       0.0000000000E+00               0
GRID*               1234               03.0318349058E+011.4955814195E+00+
*       0.0000000000E+00               0
GRID*               1235               03.0201379840E+011.2685731120E+00+
*       0.0000000000E+00               0
GRID*               1236               03.0349173468E+011.2339878674E+00+
*       0.0000000000E+00               0
GRID*               1237               03.0437129857E+011.4397821375E+00+
*       0.0000000000E+00               0
GRID*               1238               03.0430201377E+011.3256247429E+00+
*       0.0000000000E+00               0
GRID*               1239               03.0462149345E+011.1957773639E+00+
*       0.0000000000E+00               0
GRID*               1240               03.0550105735E+011.4015716339E+00+
*       0.0000000000E+00               0
GRID*               1241               03.0659148488E+011.3285536710E+00+
*       0.0000000000E+00               0
GRID*               1242               03.0535277174E+011.0892647389E+00+
*       0.0000000000E+00               0
GRID*               1243               03.0616305083E+011.1809016143E+00+
*       0.0000000000E+00               0
GRID*               1244               03.0583580852E+019.5165032247E-01+
*       0.0000000000E+00               0
GRID*               1245               03.0726635478E+019.2684064175E-01+
*       0.0000000000E+00               0
GRID*               1246               03.0965315772E+018.6385372297E-01+
*       0.0000000000E+00               0
GRID*               1247               03.1025051543E+019.7362245162E-01+
*       0.0000000000E+00               0
GRID*               1248               03.0840160103E+018.6913539636E-01+
*       0.0000000000E+00               0
GRID*               1249               03.0802957537E+011.0166837439E+00+
*       0.0000000000E+00               0
GRID*               1250               03.0942637835E+011.0757493897E+00+
*       0.0000000000E+00               0
GRID*               1251               03.0829113210E+011.1334546351E+00+
*       0.0000000000E+00               0
GRID*               1252               03.0732276316E+011.2220410460E+00+
*       0.0000000000E+00               0
GRID*               1253               03.0368031652E+015.3610111420E-02+
*       0.0000000000E+00               0
GRID*               1254               03.0354549434E+015.6666381610E-02+
*       0.0000000000E+00               0
GRID*               1255               03.0360019305E+014.2664811997E-02+
*       0.0000000000E+00               0
GRID*               1256               03.0382651465E+015.2098314787E-02+
*       0.0000000000E+00               0
GRID*               1257               03.0387997037E+013.9856835455E-02+
*       0.0000000000E+00               0
GRID*               1258               03.0397146978E+015.2346608434E-02+
*       0.0000000000E+00               0
GRID*               1259               03.0377181593E+016.6099884400E-02+
*       0.0000000000E+00               0
GRID*               1260               03.0386620089E+017.7735673482E-02+
*       0.0000000000E+00               0
GRID*               1261               03.0372000276E+017.9247470115E-02+
*       0.0000000000E+00               0
GRID*               1262               03.0396091760E+012.9448823452E-02+
*       0.0000000000E+00               0
GRID*               1263               03.0400796766E+011.8743030146E-02+
*       0.0000000000E+00               0
GRID*               1264               03.0407197556E+012.9399335797E-02+
*       0.0000000000E+00               0
GRID*               1265               03.0349634947E+013.5625438357E-02+
*       0.0000000000E+00               0
GRID*               1266               03.0340364146E+013.7291748243E-02+
*       0.0000000000E+00               0
GRID*               1267               03.0343462006E+012.7196104413E-02+
*       0.0000000000E+00               0
GRID*               1268               03.0381596247E+012.9200529804E-02+
*       0.0000000000E+00               0
GRID*               1269               03.0371248252E+012.7594950448E-02+
*       0.0000000000E+00               0
GRID*               1270               03.0379342975E+011.7186938445E-02+
*       0.0000000000E+00               0
GRID*               1271               03.0363117165E+013.2569168167E-02+
*       0.0000000000E+00               0
GRID*               1272               03.0360863894E+012.0555576808E-02+
*       0.0000000000E+00               0
GRID*               1273               03.0405873138E+019.3467712458E-03+
*       0.0000000000E+00               0
GRID*               1274               03.0416320121E+019.3467712458E-03+
*       0.0000000000E+00               0
GRID*               1275               03.0327240624E+017.1679475504E-03+
*       0.0000000000E+00               0
GRID*               1276               03.0319518445E+017.1679475504E-03+
*       0.0000000000E+00               0
GRID*               1277               03.0335519621E+016.5792412804E-03+
*       0.0000000000E+00               0
GRID*               1278               03.0343469135E+016.5792412804E-03+
*       0.0000000000E+00               0
GRID*               1279               03.0332091387E+011.3747188831E-02+
*       0.0000000000E+00               0
GRID*               1280               03.0337280795E+012.1010448430E-02+
*       0.0000000000E+00               0
GRID*               1281               03.0329001798E+012.1599154700E-02+
*       0.0000000000E+00               0
GRID*               1282               03.0346551596E+011.9344138544E-02+
*       0.0000000000E+00               0
GRID*               1283               03.0347324614E+011.1970158745E-02+
*       0.0000000000E+00               0
GRID*               1284               03.0353505825E+011.8155814729E-02+
*       0.0000000000E+00               0
GRID*               1285               03.0350423365E+015.3909174651E-03+
*       0.0000000000E+00               0
GRID*               1286               03.0358730479E+015.3909174651E-03+
*       0.0000000000E+00               0
GRID*               1287               03.0394767342E+019.3962589005E-03+
*       0.0000000000E+00               0
GRID*               1288               03.0385253718E+019.3962589005E-03+
*       0.0000000000E+00               0
GRID*               1289               03.0361636912E+011.3181597010E-02+
*       0.0000000000E+00               0
GRID*               1290               03.0374905724E+017.7906795446E-03+
*       0.0000000000E+00               0
GRID*               1291               03.0366088547E+017.7906795446E-03+
*       0.0000000000E+00               0
GRID*               1292               03.0366335672E+019.3024015291E-02+
*       0.0000000000E+00               0
GRID*               1293               03.0356897176E+018.1388226208E-02+
*       0.0000000000E+00               0
GRID*               1294               03.0376511281E+011.0452367644E-01+
*       0.0000000000E+00               0
GRID*               1295               03.0361408180E+011.0666443253E-01+
*       0.0000000000E+00               0
GRID*               1296               03.0356706472E+011.2110356126E-01+
*       0.0000000000E+00               0
GRID*               1297               03.0346530863E+011.0960390011E-01+
*       0.0000000000E+00               0
GRID*               1298               03.0348314280E+011.4879741933E-01+
*       0.0000000000E+00               0
GRID*               1299               03.0358396826E+011.5929892147E-01+
*       0.0000000000E+00               0
GRID*               1300               03.0344040414E+011.6236436729E-01+
*       0.0000000000E+00               0
GRID*               1301               03.0352249923E+011.3488750117E-01+
*       0.0000000000E+00               0
GRID*               1302               03.0367127240E+011.3194803359E-01+
*       0.0000000000E+00               0
GRID*               1303               03.0337893512E+011.3795294699E-01+
*       0.0000000000E+00               0
GRID*               1304               03.0315779524E+011.1648683849E-01+
*       0.0000000000E+00               0
GRID*               1305               03.0299195972E+011.2060141685E-01+
*       0.0000000000E+00               0
GRID*               1306               03.0303214647E+011.0520876457E-01+
*       0.0000000000E+00               0
GRID*               1307               03.0326795002E+011.2796125981E-01+
*       0.0000000000E+00               0
GRID*               1308               03.0322859359E+011.4187117796E-01+
*       0.0000000000E+00               0
GRID*               1309               03.0330813677E+011.1256860753E-01+
*       0.0000000000E+00               0
GRID*               1310               03.0335515385E+019.8129478798E-02+
*       0.0000000000E+00               0
GRID*               1311               03.0346306510E+016.8144323947E-02+
*       0.0000000000E+00               0
GRID*               1312               03.0338294164E+015.7199024524E-02+
*       0.0000000000E+00               0
GRID*               1313               03.0340641906E+018.1920869123E-02+
*       0.0000000000E+00               0
GRID*               1314               03.0324924720E+018.4885576538E-02+
*       0.0000000000E+00               0
GRID*               1315               03.0311015379E+017.0465510512E-03+
*       0.0000000000E+00               0
GRID*               1316               03.0303403701E+017.0465510512E-03+
*       0.0000000000E+00               0
GRID*               1317               03.0315309324E+011.4214498602E-02+
*       0.0000000000E+00               0
GRID*               1318               03.0319708591E+012.2079944025E-02+
*       0.0000000000E+00               0
GRID*               1319               03.0311205525E+012.1958547526E-02+
*       0.0000000000E+00               0
GRID*               1320               03.0336534749E+014.4837084483E-02+
*       0.0000000000E+00               0
GRID*               1321               03.0330361808E+013.6407750540E-02+
*       0.0000000000E+00               0
GRID*               1322               03.0328291826E+015.6315026821E-02+
*       0.0000000000E+00               0
GRID*               1323               03.0324897999E+012.9343203624E-02+
*       0.0000000000E+00               0
GRID*               1324               03.0321068602E+013.6888539865E-02+
*       0.0000000000E+00               0
GRID*               1325               03.0298893055E+011.3111490945E-02+
*       0.0000000000E+00               0
GRID*               1326               03.0316635618E+014.6637652081E-02+
*       0.0000000000E+00               0
GRID*               1327               03.0311171809E+013.9573105166E-02+
*       0.0000000000E+00               0
GRID*               1328               03.0308493569E+018.8974035443E-02+
*       0.0000000000E+00               0
GRID*               1329               03.0313620090E+017.2765425767E-02+
*       0.0000000000E+00               0
GRID*               1330               03.0291910017E+019.3088613802E-02+
*       0.0000000000E+00               0
GRID*               1331               03.0318395033E+015.8999592122E-02+
*       0.0000000000E+00               0
GRID*               1332               03.0301963882E+016.3088051027E-02+
*       0.0000000000E+00               0
GRID*               1333               03.0280739525E+017.9873180196E-02+
*       0.0000000000E+00               0
GRID*               1334               03.0275460603E+019.6107909325E-02+
*       0.0000000000E+00               0
GRID*               1335               03.0286334241E+016.3101771522E-02+
*       0.0000000000E+00               0
GRID*               1336               03.0269884827E+016.6121067045E-02+
*       0.0000000000E+00               0
GRID*               1337               03.0285316751E+013.9142527221E-02+
*       0.0000000000E+00               0
GRID*               1338               03.0274386897E+013.4972375598E-02+
*       0.0000000000E+00               0
GRID*               1339               03.0284224105E+012.4765244448E-02+
*       0.0000000000E+00               0
GRID*               1340               03.0291109184E+014.9335937876E-02+
*       0.0000000000E+00               0
GRID*               1341               03.0300946392E+013.9128806727E-02+
*       0.0000000000E+00               0
GRID*               1342               03.0305379375E+012.9379694511E-02+
*       0.0000000000E+00               0
GRID*               1343               03.0293066905E+012.0532637930E-02+
*       0.0000000000E+00               0
GRID*               1344               03.0300980108E+012.1514249087E-02+
*       0.0000000000E+00               0
GRID*               1345               03.0614591926E+013.9019079197E-01+
*       0.0000000000E+00               0
GRID*               1346               03.0669409935E+013.7916594172E-01+
*       0.0000000000E+00               0
GRID*               1347               03.0583938211E+013.5754537870E-01+
*       0.0000000000E+00               0
GRID*               1348               03.0566492877E+014.1191797793E-01+
*       0.0000000000E+00               0
GRID*               1349               03.0592322939E+013.2406885753E-01+
*       0.0000000000E+00               0
GRID*               1350               03.0571635231E+012.8386041066E-01+
*       0.0000000000E+00               0
GRID*               1351               03.0611349551E+012.9560974587E-01+
*       0.0000000000E+00               0
GRID*               1352               03.0544223891E+013.4579604349E-01+
*       0.0000000000E+00               0
GRID*               1353               03.0555697368E+012.6064793187E-01+
*       0.0000000000E+00               0
GRID*               1354               03.0534747304E+012.3645316916E-01+
*       0.0000000000E+00               0
GRID*               1355               03.0569711779E+012.3120653629E-01+
*       0.0000000000E+00               0
GRID*               1356               03.0536670757E+012.8910704353E-01+
*       0.0000000000E+00               0
GRID*               1357               03.0521257621E+013.1907513401E-01+
*       0.0000000000E+00               0
GRID*               1358               03.0512872893E+013.5255165518E-01+
*       0.0000000000E+00               0
GRID*               1359               03.0505319758E+012.9586265523E-01+
*       0.0000000000E+00               0
GRID*               1360               03.0489895240E+012.7027495900E-01+
*       0.0000000000E+00               0
GRID*               1361               03.0474482104E+013.0024304948E-01+
*       0.0000000000E+00               0
GRID*               1362               03.0397452041E+011.9868235564E-01+
*       0.0000000000E+00               0
GRID*               1363               03.0383753644E+012.0151616869E-01+
*       0.0000000000E+00               0
GRID*               1364               03.0388351206E+011.9055066574E-01+
*       0.0000000000E+00               0
GRID*               1365               03.0409893382E+011.9858479041E-01+
*       0.0000000000E+00               0
GRID*               1366               03.0416603924E+011.8544794979E-01+
*       0.0000000000E+00               0
GRID*               1367               03.0424447702E+011.9631588752E-01+
*       0.0000000000E+00               0
GRID*               1368               03.0405295819E+012.0955029337E-01+
*       0.0000000000E+00               0
GRID*               1369               03.0408119346E+012.2163443290E-01+
*       0.0000000000E+00               0
GRID*               1370               03.0395678005E+012.2173199813E-01+
*       0.0000000000E+00               0
GRID*               1371               03.0455891369E+011.9119935584E-01+
*       0.0000000000E+00               0
GRID*               1372               03.0438564876E+011.9411799587E-01+
*       0.0000000000E+00               0
GRID*               1373               03.0448484738E+011.8026040686E-01+
*       0.0000000000E+00               0
GRID*               1374               03.0516466257E+012.1322962103E-01+
*       0.0000000000E+00               0
GRID*               1375               03.0498131016E+011.9332862598E-01+
*       0.0000000000E+00               0
GRID*               1376               03.0530426474E+011.8711077853E-01+
*       0.0000000000E+00               0
GRID*               1377               03.0502451847E+012.4267101662E-01+
*       0.0000000000E+00               0
GRID*               1378               03.0474991015E+011.9839461766E-01+
*       0.0000000000E+00               0
GRID*               1379               03.0465071153E+012.1225220667E-01+
*       0.0000000000E+00               0
GRID*               1380               03.0488951232E+011.7227577515E-01+
*       0.0000000000E+00               0
GRID*               1381               03.0431854334E+012.0725483650E-01+
*       0.0000000000E+00               0
GRID*               1382               03.0419857418E+012.5161211255E-01+
*       0.0000000000E+00               0
GRID*               1383               03.0401877802E+012.5083414800E-01+
*       0.0000000000E+00               0
GRID*               1384               03.0416481148E+012.3459410221E-01+
*       0.0000000000E+00               0
GRID*               1385               03.0471614193E+012.4705141087E-01+
*       0.0000000000E+00               0
GRID*               1386               03.0446759175E+012.5501371000E-01+
*       0.0000000000E+00               0
GRID*               1387               03.0459315782E+012.2740976762E-01+
*       0.0000000000E+00               0
GRID*               1388               03.0426098962E+012.2241239745E-01+
*       0.0000000000E+00               0
GRID*               1389               03.0440216136E+012.2021450580E-01+
*       0.0000000000E+00               0
GRID*               1390               03.0472557229E+011.5544513313E-01+
*       0.0000000000E+00               0
GRID*               1391               03.0495697229E+011.5037914145E-01+
*       0.0000000000E+00               0
GRID*               1392               03.0453835203E+011.6504325558E-01+
*       0.0000000000E+00               0
GRID*               1393               03.0436508709E+011.6796189562E-01+
*       0.0000000000E+00               0
GRID*               1394               03.0462519798E+011.2913942438E-01+
*       0.0000000000E+00               0
GRID*               1395               03.0453399272E+011.1078100527E-01+
*       0.0000000000E+00               0
GRID*               1396               03.0470182700E+011.1519008032E-01+
*       0.0000000000E+00               0
GRID*               1397               03.0460581200E+011.4314662188E-01+
*       0.0000000000E+00               0
GRID*               1398               03.0443797772E+011.3873754683E-01+
*       0.0000000000E+00               0
GRID*               1399               03.0405392270E+016.2640624184E-02+
*       0.0000000000E+00               0
GRID*               1400               03.0410737842E+015.0399144852E-02+
*       0.0000000000E+00               0
GRID*               1401               03.0414457252E+017.3217203761E-02+
*       0.0000000000E+00               0
GRID*               1402               03.0427987757E+017.0163310207E-02+
*       0.0000000000E+00               0
GRID*               1403               03.0423461875E+018.2687353366E-02+
*       0.0000000000E+00               0
GRID*               1404               03.0400866388E+017.5164667343E-02+
*       0.0000000000E+00               0
GRID*               1405               03.0395685071E+018.8312253059E-02+
*       0.0000000000E+00               0
GRID*               1406               03.0431077000E+011.4279137158E-01+
*       0.0000000000E+00               0
GRID*               1407               03.0426717295E+011.5662805673E-01+
*       0.0000000000E+00               0
GRID*               1408               03.0415935121E+011.4667468397E-01+
*       0.0000000000E+00               0
GRID*               1409               03.0433015598E+011.2878417408E-01+
*       0.0000000000E+00               0
GRID*               1410               03.0421366830E+011.7184520801E-01+
*       0.0000000000E+00               0
GRID*               1411               03.0406812509E+011.7411411090E-01+
*       0.0000000000E+00               0
GRID*               1412               03.0401682329E+011.5015985329E-01+
*       0.0000000000E+00               0
GRID*               1413               03.0406042034E+011.3632316814E-01+
*       0.0000000000E+00               0
GRID*               1414               03.0372738591E+011.5619103333E-01+
*       0.0000000000E+00               0
GRID*               1415               03.0377229967E+011.4277015548E-01+
*       0.0000000000E+00               0
GRID*               1416               03.0387297866E+011.5322921531E-01+
*       0.0000000000E+00               0
GRID*               1417               03.0368464725E+011.6975798130E-01+
*       0.0000000000E+00               0
GRID*               1418               03.0378729649E+011.8001728598E-01+
*       0.0000000000E+00               0
GRID*               1419               03.0364387885E+011.8312517411E-01+
*       0.0000000000E+00               0
GRID*               1420               03.0392428047E+011.7718347292E-01+
*       0.0000000000E+00               0
GRID*               1421               03.0397190953E+011.6358073114E-01+
*       0.0000000000E+00               0
GRID*               1422               03.0381686516E+011.2898621557E-01+
*       0.0000000000E+00               0
GRID*               1423               03.0386162655E+011.1520599092E-01+
*       0.0000000000E+00               0
GRID*               1424               03.0396265382E+011.2602811281E-01+
*       0.0000000000E+00               0
GRID*               1425               03.0391090147E+011.0156557368E-01+
*       0.0000000000E+00               0
GRID*               1426               03.0405336445E+019.8994567540E-02+
*       0.0000000000E+00               0
GRID*               1427               03.0410518173E+011.2254294349E-01+
*       0.0000000000E+00               0
GRID*               1428               03.0437309684E+011.1500634978E-01+
*       0.0000000000E+00               0
GRID*               1429               03.0424588912E+011.1906017453E-01+
*       0.0000000000E+00               0
GRID*               1430               03.0444972586E+011.0105700572E-01+
*       0.0000000000E+00               0
GRID*               1431               03.0432937688E+019.2457905024E-02+
*       0.0000000000E+00               0
GRID*               1432               03.0449027277E+018.8232560512E-02+
*       0.0000000000E+00               0
GRID*               1433               03.0419407184E+019.5511798578E-02+
*       0.0000000000E+00               0
GRID*               1434               03.0414812259E+011.0876511920E-01+
*       0.0000000000E+00               0
GRID*               1435               03.0485223482E+016.1413623166E-02+
*       0.0000000000E+00               0
GRID*               1436               03.0472372306E+016.1003700853E-02+
*       0.0000000000E+00               0
GRID*               1437               03.0481189290E+015.1424157871E-02+
*       0.0000000000E+00               0
GRID*               1438               03.0497602218E+016.9327553936E-02+
*       0.0000000000E+00               0
GRID*               1439               03.0509688750E+015.0317149221E-02+
*       0.0000000000E+00               0
GRID*               1440               03.0513250502E+016.7810622973E-02+
*       0.0000000000E+00               0
GRID*               1441               03.0488785234E+017.8907096918E-02+
*       0.0000000000E+00               0
GRID*               1442               03.0536253017E+016.6141645023E-02+
*       0.0000000000E+00               0
GRID*               1443               03.0542836707E+014.4069439156E-02+
*       0.0000000000E+00               0
GRID*               1444               03.0553752690E+016.1410865921E-02+
*       0.0000000000E+00               0
GRID*               1445               03.0524166486E+018.5152049738E-02+
*       0.0000000000E+00               0
GRID*               1446               03.0534407997E+011.0268495933E-01+
*       0.0000000000E+00               0
GRID*               1447               03.0511405481E+011.0435393728E-01+
*       0.0000000000E+00               0
GRID*               1448               03.0500475109E+011.2771767315E-01+
*       0.0000000000E+00               0
GRID*               1449               03.0516869113E+011.4454831517E-01+
*       0.0000000000E+00               0
GRID*               1450               03.0490233598E+011.1018476356E-01+
*       0.0000000000E+00               0
GRID*               1451               03.0481113072E+019.1826344450E-02+
*       0.0000000000E+00               0
GRID*               1452               03.0459215234E+018.3512900253E-02+
*       0.0000000000E+00               0
GRID*               1453               03.0447180337E+017.4913799553E-02+
*       0.0000000000E+00               0
GRID*               1454               03.0468734336E+018.3912413680E-02+
*       0.0000000000E+00               0
GRID*               1455               03.0466887396E+017.0593652721E-02+
*       0.0000000000E+00               0
GRID*               1456               03.0462853204E+016.0604187426E-02+
*       0.0000000000E+00               0
GRID*               1457               03.0450588868E+016.2446604213E-02+
*       0.0000000000E+00               0
GRID*               1458               03.0456073778E+015.2856652345E-02+
*       0.0000000000E+00               0
GRID*               1459               03.0440400910E+016.7166264472E-02+
*       0.0000000000E+00               0
GRID*               1460               03.0431396287E+015.7696114867E-02+
*       0.0000000000E+00               0
GRID*               1461               03.0414565055E+013.8179352781E-02+
*       0.0000000000E+00               0
GRID*               1462               03.0419270062E+012.7473559476E-02+
*       0.0000000000E+00               0
GRID*               1463               03.0422810347E+014.8473368531E-02+
*       0.0000000000E+00               0
GRID*               1464               03.0435223501E+014.5476322796E-02+
*       0.0000000000E+00               0
GRID*               1465               03.0421362919E+011.7410868202E-02+
*       0.0000000000E+00               0
GRID*               1466               03.0428730418E+012.6190885186E-02+
*       0.0000000000E+00               0
GRID*               1467               03.0425780477E+018.0640969561E-03+
*       0.0000000000E+00               0
GRID*               1468               03.0437472896E+018.0640969561E-03+
*       0.0000000000E+00               0
GRID*               1469               03.0439589361E+013.1348467986E-02+
*       0.0000000000E+00               0
GRID*               1470               03.0448175301E+014.0571214322E-02+
*       0.0000000000E+00               0
GRID*               1471               03.0448331839E+011.3221679756E-02+
*       0.0000000000E+00               0
GRID*               1472               03.0461694934E+011.3221679756E-02+
*       0.0000000000E+00               0
GRID*               1473               03.0441682219E+012.1285776712E-02+
*       0.0000000000E+00               0
GRID*               1474               03.0550000628E+011.9669330027E-02+
*       0.0000000000E+00               0
GRID*               1475               03.0573233455E+011.9669330027E-02+
*       0.0000000000E+00               0
GRID*               1476               03.0460439638E+013.8728797535E-02+
*       0.0000000000E+00               0
GRID*               1477               03.0467601641E+012.6260334551E-02+
*       0.0000000000E+00               0
GRID*               1478               03.0475500118E+013.8545772574E-02+
*       0.0000000000E+00               0
GRID*               1479               03.0476755414E+011.3038654795E-02+
*       0.0000000000E+00               0
GRID*               1480               03.0492388232E+011.3038654795E-02+
*       0.0000000000E+00               0
GRID*               1481               03.0488351293E+013.8955694887E-02+
*       0.0000000000E+00               0
GRID*               1482               03.0523690299E+011.2993317509E-02+
*       0.0000000000E+00               0
GRID*               1483               03.0504915032E+011.2993317509E-02+
*       0.0000000000E+00               0
GRID*               1484               03.0532500955E+012.4400109129E-02+
*       0.0000000000E+00               0
GRID*               1485               03.0516526378E+013.7393426638E-02+
*       0.0000000000E+00               0
GRID*               1486               03.0500878094E+013.8910357601E-02+
*       0.0000000000E+00               0
GRID*               1487               03.0495188922E+012.6031972304E-02+
*       0.0000000000E+00               0
GRID*               1488               03.0577644948E+011.9836523380E-01+
*       0.0000000000E+00               0
GRID*               1489               03.0598595012E+012.2255999651E-01+
*       0.0000000000E+00               0
GRID*               1490               03.0559158550E+011.7248259177E-01+
*       0.0000000000E+00               0
GRID*               1491               03.0588041783E+011.6383605199E-01+
*       0.0000000000E+00               0
GRID*               1492               03.0545601189E+011.2992012841E-01+
*       0.0000000000E+00               0
GRID*               1493               03.0558362193E+011.1071824087E-01+
*       0.0000000000E+00               0
GRID*               1494               03.0540823309E+011.5258159672E-01+
*       0.0000000000E+00               0
GRID*               1495               03.0586977116E+011.0098894153E-01+
*       0.0000000000E+00               0
GRID*               1496               03.0575783924E+017.3753772449E-02+
*       0.0000000000E+00               0
GRID*               1497               03.0608186574E+011.3356075207E-01+
*       0.0000000000E+00               0
GRID*               1498               03.0626672972E+011.5944339411E-01+
*       0.0000000000E+00               0
GRID*               1499               03.0625608305E+019.6596283653E-02+
*       0.0000000000E+00               0
GRID*               1500               03.0638644461E+016.1626431900E-02+
*       0.0000000000E+00               0
GRID*               1501               03.0659853919E+019.4198242442E-02+
*       0.0000000000E+00               0
GRID*               1502               03.0659245769E+012.9614195345E-02+
*       0.0000000000E+00               0
GRID*               1503               03.0698730308E+012.9614195345E-02+
*       0.0000000000E+00               0
GRID*               1504               03.0625000155E+013.2012236555E-02+
*       0.0000000000E+00               0
GRID*               1505               03.0582367614E+015.1681566582E-02+
*       0.0000000000E+00               0
GRID*               1506               03.0595264689E+013.2012236555E-02+
*       0.0000000000E+00               0
GRID*               1507               03.0728775798E+013.6681576765E-01+
*       0.0000000000E+00               0
GRID*               1508               03.0789276698E+013.6017086004E-01+
*       0.0000000000E+00               0
GRID*               1509               03.0691403122E+013.2346801867E-01+
*       0.0000000000E+00               0
GRID*               1510               03.0656289228E+012.7779310298E-01+
*       0.0000000000E+00               0
GRID*               1511               03.0715655091E+012.6544292891E-01+
*       0.0000000000E+00               0
GRID*               1512               03.0643534689E+012.0474335362E-01+
*       0.0000000000E+00               0
GRID*               1513               03.0663679480E+011.7446805371E-01+
*       0.0000000000E+00               0
GRID*               1514               03.0635601520E+012.3758465611E-01+
*       0.0000000000E+00               0
GRID*               1515               03.0734891229E+015.3380239996E-02+
*       0.0000000000E+00               0
GRID*               1516               03.0789197490E+015.3380239996E-02+
*       0.0000000000E+00               0
GRID*               1517               03.0696014841E+011.1796428709E-01+
*       0.0000000000E+00               0
GRID*               1518               03.0712876558E+011.6326424660E-01+
*       0.0000000000E+00               0
GRID*               1519               03.0709050997E+018.2994435341E-02+
*       0.0000000000E+00               0
GRID*               1520               03.1101948277E+019.3124683447E-02+
*       0.0000000000E+00               0
GRID*               1521               03.0998669419E+019.3124683447E-02+
*       0.0000000000E+00               0
GRID*               1522               03.1306686995E+011.3087045138E-01+
*       0.0000000000E+00               0
GRID*               1523               03.1186532714E+011.6090598897E-01+
*       0.0000000000E+00               0
GRID*               1524               03.1096570483E+012.5403067242E-01+
*       0.0000000000E+00               0
GRID*               1525               03.0997805347E+012.8553205690E-01+
*       0.0000000000E+00               0
GRID*               1526               03.0927232881E+013.2822944550E-01+
*       0.0000000000E+00               0
GRID*               1527               03.0849312762E+013.4043400979E-01+
*       0.0000000000E+00               0
GRID*               1528               03.0941248641E+011.5791873330E-01+
*       0.0000000000E+00               0
GRID*               1529               03.0927932015E+016.4794049852E-02+
*       0.0000000000E+00               0
GRID*               1530               03.0941413580E+012.2894675549E-01+
*       0.0000000000E+00               0
GRID*               1531               03.0870676175E+012.0061612190E-01+
*       0.0000000000E+00               0
GRID*               1532               03.0810805049E+012.9138099434E-01+
*       0.0000000000E+00               0
GRID*               1533               03.0851847150E+016.4794049852E-02+
*       0.0000000000E+00               0
GRID*               1534               03.0766824553E+012.5968421426E-01+
*       0.0000000000E+00               0
GRID*               1535               03.0826860617E+012.3994736400E-01+
*       0.0000000000E+00               0
GRID*               1536               03.0731710659E+012.1400929857E-01+
*       0.0000000000E+00               0
GRID*               1537               03.0764046019E+011.5750553196E-01+
*       0.0000000000E+00               0
GRID*               1538               03.0826695679E+011.6891934181E-01+
*       0.0000000000E+00               0
GRID*               1539               03.0807861577E+011.1817428985E-01+
*       0.0000000000E+00               0
GRID*               1540               03.0246039135E+014.3358092270E-02+
*       0.0000000000E+00               0
GRID*               1541               03.0231034740E+014.6530480055E-02+
*       0.0000000000E+00               0
GRID*               1542               03.0258875644E+015.4178699775E-02+
*       0.0000000000E+00               0
GRID*               1543               03.0253280928E+017.0950108449E-02+
*       0.0000000000E+00               0
GRID*               1544               03.0262643034E+013.8529050866E-02+
*       0.0000000000E+00               0
GRID*               1545               03.0283805429E+012.5256206438E-01+
*       0.0000000000E+00               0
GRID*               1546               03.0280089955E+012.6999266631E-01+
*       0.0000000000E+00               0
GRID*               1547               03.0268091947E+012.5911439518E-01+
*       0.0000000000E+00               0
GRID*               1548               03.0288566780E+012.3933226389E-01+
*       0.0000000000E+00               0
GRID*               1549               03.0277386035E+012.2614092420E-01+
*       0.0000000000E+00               0
GRID*               1550               03.0294145393E+012.2378939483E-01+
*       0.0000000000E+00               0
GRID*               1551               03.0300564788E+012.5021053501E-01+
*       0.0000000000E+00               0
GRID*               1552               03.0317519236E+012.5041928935E-01+
*       0.0000000000E+00               0
GRID*               1553               03.0312757885E+012.6364908984E-01+
*       0.0000000000E+00               0
GRID*               1554               03.0319263851E+012.8249234735E-01+
*       0.0000000000E+00               0
GRID*               1555               03.0346019123E+012.7784065555E-01+
*       0.0000000000E+00               0
GRID*               1556               03.0335570641E+012.9647515872E-01+
*       0.0000000000E+00               0
GRID*               1557               03.0286595921E+012.8883592381E-01+
*       0.0000000000E+00               0
GRID*               1558               03.0282218366E+013.0982021667E-01+
*       0.0000000000E+00               0
GRID*               1559               03.0259998918E+012.9752928996E-01+
*       0.0000000000E+00               0
GRID*               1560               03.0302309403E+012.8228359301E-01+
*       0.0000000000E+00               0
GRID*               1561               03.0279627459E+013.3587348338E-01+
*       0.0000000000E+00               0
GRID*               1562               03.0272072990E+013.6261977549E-01+
*       0.0000000000E+00               0
GRID*               1563               03.0248066895E+013.4525987493E-01+
*       0.0000000000E+00               0
GRID*               1564               03.0306224462E+013.2718011723E-01+
*       0.0000000000E+00               0
GRID*               1565               03.0356123948E+013.1152976155E-01+
*       0.0000000000E+00               0
GRID*               1566               03.0387102147E+013.0799384125E-01+
*       0.0000000000E+00               0
GRID*               1567               03.0380900182E+013.2770013588E-01+
*       0.0000000000E+00               0
GRID*               1568               03.0329368676E+013.1618145335E-01+
*       0.0000000000E+00               0
GRID*               1569               03.0326777769E+013.4223472006E-01+
*       0.0000000000E+00               0
GRID*               1570               03.0258514165E+014.5932958521E-01+
*       0.0000000000E+00               0
GRID*               1571               03.0262349144E+014.2517591677E-01+
*       0.0000000000E+00               0
GRID*               1572               03.0297595797E+014.4750339274E-01+
*       0.0000000000E+00               0
GRID*               1573               03.0217497997E+014.8394752705E-01+
*       0.0000000000E+00               0
GRID*               1574               03.0302532165E+013.8329155413E-01+
*       0.0000000000E+00               0
GRID*               1575               03.0334845994E+013.6544327384E-01+
*       0.0000000000E+00               0
GRID*               1576               03.0333744605E+013.9550144403E-01+
*       0.0000000000E+00               0
GRID*               1577               03.0270971601E+013.9267794568E-01+
*       0.0000000000E+00               0
GRID*               1578               03.0231889969E+014.0450413814E-01+
*       0.0000000000E+00               0
GRID*               1579               03.0357990209E+013.5444460996E-01+
*       0.0000000000E+00               0
GRID*               1580               03.0388968408E+013.5090868967E-01+
*       0.0000000000E+00               0
GRID*               1581               03.0429666934E+013.5578312062E-01+
*       0.0000000000E+00               0
GRID*               1582               03.0406756961E+013.8252759470E-01+
*       0.0000000000E+00               0
GRID*               1583               03.0416693224E+014.2339180512E-01+
*       0.0000000000E+00               0
GRID*               1584               03.0471055314E+014.2259517387E-01+
*       0.0000000000E+00               0
GRID*               1585               03.0343680868E+014.3636565445E-01+
*       0.0000000000E+00               0
GRID*               1586               03.0375994697E+014.1851737417E-01+
*       0.0000000000E+00               0
GRID*               1587               03.0237409629E+011.6997222976E-01+
*       0.0000000000E+00               0
GRID*               1588               03.0221615213E+011.7532707500E-01+
*       0.0000000000E+00               0
GRID*               1589               03.0224989922E+011.6075388657E-01+
*       0.0000000000E+00               0
GRID*               1590               03.0251916979E+011.6884874967E-01+
*       0.0000000000E+00               0
GRID*               1591               03.0248542271E+011.8342193810E-01+
*       0.0000000000E+00               0
GRID*               1592               03.0266019773E+012.1150250796E-01+
*       0.0000000000E+00               0
GRID*               1593               03.0260441160E+012.2704537701E-01+
*       0.0000000000E+00               0
GRID*               1594               03.0256062260E+011.9735270939E-01+
*       0.0000000000E+00               0
GRID*               1595               03.0241554909E+011.9847618948E-01+
*       0.0000000000E+00               0
GRID*               1596               03.0273007135E+011.9644825657E-01+
*       0.0000000000E+00               0
GRID*               1597               03.0253241971E+012.4424695414E-01+
*       0.0000000000E+00               0
GRID*               1598               03.0249526497E+012.6167755607E-01+
*       0.0000000000E+00               0
GRID*               1599               03.0241875709E+012.2960853790E-01+
*       0.0000000000E+00               0
GRID*               1600               03.0207519259E+011.8728704780E-01+
*       0.0000000000E+00               0
GRID*               1601               03.0188792147E+011.9143759680E-01+
*       0.0000000000E+00               0
GRID*               1602               03.0190468395E+011.7025928082E-01+
*       0.0000000000E+00               0
GRID*               1603               03.0219938966E+011.9650539099E-01+
*       0.0000000000E+00               0
GRID*               1604               03.0227458955E+012.1043616228E-01+
*       0.0000000000E+00               0
GRID*               1605               03.0220259766E+012.2763773941E-01+
*       0.0000000000E+00               0
GRID*               1606               03.0122706772E+016.7814953101E-02+
*       0.0000000000E+00               0
GRID*               1607               03.0092820348E+016.9671436916E-02+
*       0.0000000000E+00               0
GRID*               1608               03.0198562585E+011.5472479204E-01+
*       0.0000000000E+00               0
GRID*               1609               03.0179835473E+011.5887534104E-01+
*       0.0000000000E+00               0
GRID*               1610               03.0212260954E+011.4957809430E-01+
*       0.0000000000E+00               0
GRID*               1611               03.0228055369E+011.4422324905E-01+
*       0.0000000000E+00               0
GRID*               1612               03.0201628032E+011.3819415452E-01+
*       0.0000000000E+00               0
GRID*               1613               03.0189087457E+011.2736008216E-01+
*       0.0000000000E+00               0
GRID*               1614               03.0202785826E+011.2221338442E-01+
*       0.0000000000E+00               0
GRID*               1615               03.0136732047E+018.6363251105E-02+
*       0.0000000000E+00               0
GRID*               1616               03.0155431631E+011.0662621369E-01+
*       0.0000000000E+00               0
GRID*               1617               03.0129874139E+011.1116873332E-01+
*       0.0000000000E+00               0
GRID*               1618               03.0148264265E+016.3272433476E-02+
*       0.0000000000E+00               0
GRID*               1619               03.0168251693E+011.3738627408E-01+
*       0.0000000000E+00               0
GRID*               1620               03.0160157503E+011.5292076286E-01+
*       0.0000000000E+00               0
GRID*               1621               03.0169409487E+011.2140550398E-01+
*       0.0000000000E+00               0
GRID*               1622               03.0176267395E+019.6600021768E-02+
*       0.0000000000E+00               0
GRID*               1623               03.0027950838E+015.1813023235E-01+
*       0.0000000000E+00               0
GRID*               1624               03.0160929280E+014.8309214020E-01+
*       0.0000000000E+00               0
GRID*               1625               03.0044891234E+014.0175751507E-01+
*       0.0000000000E+00               0
GRID*               1626               03.0139131142E+013.2076713205E-01+
*       0.0000000000E+00               0
GRID*               1627               03.0112006292E+012.9492427967E-01+
*       0.0000000000E+00               0
GRID*               1628               03.0160551607E+012.8854866107E-01+
*       0.0000000000E+00               0
GRID*               1629               03.0166698794E+014.3614672239E-01+
*       0.0000000000E+00               0
GRID*               1630               03.0141428036E+014.0650023383E-01+
*       0.0000000000E+00               0
GRID*               1631               03.0100357952E+013.8121704310E-01+
*       0.0000000000E+00               0
GRID*               1632               03.0131655911E+013.5242594138E-01+
*       0.0000000000E+00               0
GRID*               1633               03.0197996753E+014.0735562068E-01+
*       0.0000000000E+00               0
GRID*               1634               03.0206619210E+013.7485764958E-01+
*       0.0000000000E+00               0
GRID*               1635               03.0180201226E+013.4605032279E-01+
*       0.0000000000E+00               0
GRID*               1636               03.0214094441E+013.4319884025E-01+
*       0.0000000000E+00               0
GRID*               1637               03.0221648910E+013.1645254814E-01+
*       0.0000000000E+00               0
GRID*               1638               03.0162207323E+012.5877923397E-01+
*       0.0000000000E+00               0
GRID*               1639               03.0144755439E+012.3948987677E-01+
*       0.0000000000E+00               0
GRID*               1640               03.0173536005E+012.3556330205E-01+
*       0.0000000000E+00               0
GRID*               1641               03.0189332172E+012.8462208636E-01+
*       0.0000000000E+00               0
GRID*               1642               03.0209225043E+012.6818696736E-01+
*       0.0000000000E+00               0
GRID*               1643               03.0207569328E+012.9795639446E-01+
*       0.0000000000E+00               0
GRID*               1644               03.0241541781E+013.0001742914E-01+
*       0.0000000000E+00               0
GRID*               1645               03.0245919336E+012.7903313629E-01+
*       0.0000000000E+00               0
GRID*               1646               03.0231069360E+012.6416569525E-01+
*       0.0000000000E+00               0
GRID*               1647               03.0212832204E+012.5083138714E-01+
*       0.0000000000E+00               0
GRID*               1648               03.0198415450E+012.3165901152E-01+
*       0.0000000000E+00               0
GRID*               1649               03.0180963567E+012.1236965432E-01+
*       0.0000000000E+00               0
GRID*               1650               03.0163912702E+011.9534188733E-01+
*       0.0000000000E+00               0
GRID*               1651               03.0035119109E+013.4768322262E-01+
*       0.0000000000E+00               0
GRID*               1652               03.0122315043E+012.4004801022E-01+
*       0.0000000000E+00               0
GRID*               1653               03.0133643725E+012.1683207830E-01+
*       0.0000000000E+00               0
GRID*               1654               03.0039528586E+013.0218109792E-01+
*       0.0000000000E+00               0
GRID*               1655               03.0026942782E+012.6078606207E-01+
*       0.0000000000E+00               0
GRID*               1656               03.0078000024E+012.8574771479E-01+
*       0.0000000000E+00               0
GRID*               1657               03.0099420489E+012.5352924381E-01+
*       0.0000000000E+00               0
GRID*               1658               03.0088308774E+012.3087144534E-01+
*       0.0000000000E+00               0
GRID*               1659               03.0148774536E+011.7608675655E-01+
*       0.0000000000E+00               0
GRID*               1660               03.0137190756E+011.5459768959E-01+
*       0.0000000000E+00               0
GRID*               1661               03.0140945956E+011.9701881406E-01+
*       0.0000000000E+00               0
GRID*               1662               03.0118505559E+011.9757694751E-01+
*       0.0000000000E+00               0
GRID*               1663               03.0120711297E+011.3519870136E-01+
*       0.0000000000E+00               0
GRID*               1664               03.0102011714E+011.1493573877E-01+
*       0.0000000000E+00               0
GRID*               1665               03.0109328331E+011.5836469504E-01+
*       0.0000000000E+00               0
GRID*               1666               03.0092667665E+012.0190950343E-01+
*       0.0000000000E+00               0
GRID*               1667               03.0069773111E+012.1539073702E-01+
*       0.0000000000E+00               0
GRID*               1668               03.0099969895E+011.8209623919E-01+
*       0.0000000000E+00               0
GRID*               1669               03.0083490436E+011.6269725096E-01+
*       0.0000000000E+00               0
GRID*               1670               03.0029869957E+012.1939545938E-01+
*       0.0000000000E+00               0
GRID*               1671               03.0064259683E+017.4028378810E-02+
*       0.0000000000E+00               0
GRID*               1672               03.0082613890E+019.5262712623E-02+
*       0.0000000000E+00               0
GRID*               1673               03.0026838738E+017.4809809004E-02+
*       0.0000000000E+00               0
GRID*               1674               03.0025967047E+011.0923449491E-01+
*       0.0000000000E+00               0
GRID*               1675               03.0073451048E+011.1929268067E-01+
*       0.0000000000E+00               0
GRID*               1676               03.0019213653E+011.7048003189E-01+
*       0.0000000000E+00               0
GRID*               1677               03.0020991241E+011.3268557963E-01+
*       0.0000000000E+00               0
GRID*               1678               03.0034228847E+011.9043351747E-01+
*       0.0000000000E+00               0
GRID*               1679               03.0059116807E+011.6647530953E-01+
*       0.0000000000E+00               0
GRID*               1680               03.0068475242E+011.4274376539E-01+
*       0.0000000000E+00               0
GRID*               1681               03.0049077418E+011.2307073924E-01+
*       0.0000000000E+00               0
GRID*               1682               03.0267732334E+011.1324323198E-01+
*       0.0000000000E+00               0
GRID*               1683               03.0256561841E+011.0002779837E-01+
*       0.0000000000E+00               0
GRID*               1684               03.0283009456E+011.2863884632E-01+
*       0.0000000000E+00               0
GRID*               1685               03.0264110694E+011.3255873536E-01+
*       0.0000000000E+00               0
GRID*               1686               03.0260086077E+011.5167669552E-01+
*       0.0000000000E+00               0
GRID*               1687               03.0271218719E+011.6512640386E-01+
*       0.0000000000E+00               0
GRID*               1688               03.0244808955E+011.3628108117E-01+
*       0.0000000000E+00               0
GRID*               1689               03.0184876701E+017.7827596411E-02+
*       0.0000000000E+00               0
GRID*               1690               03.0198854556E+019.2606886699E-02+
*       0.0000000000E+00               0
GRID*               1691               03.0172092297E+016.0799443555E-02+
*       0.0000000000E+00               0
GRID*               1692               03.0194679458E+015.6806308486E-02+
*       0.0000000000E+00               0
GRID*               1693               03.0213630798E+015.3943840136E-02+
*       0.0000000000E+00               0
GRID*               1694               03.0250450889E+018.5155393061E-02+
*       0.0000000000E+00               0
GRID*               1695               03.0239441707E+017.3213025791E-02+
*       0.0000000000E+00               0
GRID*               1696               03.0242722621E+011.0229071571E-01+
*       0.0000000000E+00               0
GRID*               1697               03.0234191596E+011.1092806528E-01+
*       0.0000000000E+00               0
GRID*               1698               03.0228080645E+019.6055659973E-02+
*       0.0000000000E+00               0
GRID*               1699               03.0232079987E+011.2510528890E-01+
*       0.0000000000E+00               0
GRID*               1700               03.0217438011E+011.1887023316E-01+
*       0.0000000000E+00               0
GRID*               1701               03.0204897436E+011.0803616080E-01+
*       0.0000000000E+00               0
GRID*               1702               03.0213506741E+018.9263735442E-02+
*       0.0000000000E+00               0
GRID*               1703               03.0224867803E+016.6421101260E-02+
*       0.0000000000E+00               0
GRID*               1704               03.0222037765E+018.0626385872E-02+
*       0.0000000000E+00               0
GRID*               1705               03.0310549053E+012.2160513666E-01+
*       0.0000000000E+00               0
GRID*               1706               03.0327335829E+012.1818207650E-01+
*       0.0000000000E+00               0
GRID*               1707               03.0322112915E+012.3355767436E-01+
*       0.0000000000E+00               0
GRID*               1708               03.0299368307E+012.0841379697E-01+
*       0.0000000000E+00               0
GRID*               1709               03.0372206908E+012.0679195478E-01+
*       0.0000000000E+00               0
GRID*               1710               03.0358125550E+012.1015408226E-01+
*       0.0000000000E+00               0
GRID*               1711               03.0360571450E+011.9674660627E-01+
*       0.0000000000E+00               0
GRID*               1712               03.0381307743E+012.1492364468E-01+
*       0.0000000000E+00               0
GRID*               1713               03.0342694892E+012.1512167397E-01+
*       0.0000000000E+00               0
GRID*               1714               03.0331131029E+012.0316913627E-01+
*       0.0000000000E+00               0
GRID*               1715               03.0354330350E+012.2516702249E-01+
*       0.0000000000E+00               0
GRID*               1716               03.0336211343E+011.8920691304E-01+
*       0.0000000000E+00               0
GRID*               1717               03.0320852280E+011.9226731557E-01+
*       0.0000000000E+00               0
GRID*               1718               03.0350306526E+011.8648730159E-01+
*       0.0000000000E+00               0
GRID*               1719               03.0340027777E+011.7558548089E-01+
*       0.0000000000E+00               0
GRID*               1720               03.0329945231E+011.6508397874E-01+
*       0.0000000000E+00               0
GRID*               1721               03.0279728540E+011.8158728991E-01+
*       0.0000000000E+00               0
GRID*               1722               03.0289686053E+011.9573708848E-01+
*       0.0000000000E+00               0
GRID*               1723               03.0295574333E+011.3991692024E-01+
*       0.0000000000E+00               0
GRID*               1724               03.0294623037E+011.5315929417E-01+
*       0.0000000000E+00               0
GRID*               1725               03.0310809554E+011.4512186471E-01+
*       0.0000000000E+00               0
GRID*               1726               03.0287897637E+011.6441523576E-01+
*       0.0000000000E+00               0
GRID*               1727               03.0303132858E+011.6962018023E-01+
*       0.0000000000E+00               0
GRID*               1728               03.0321908063E+011.5511355189E-01+
*       0.0000000000E+00               0
GRID*               1729               03.0317895426E+011.6833466549E-01+
*       0.0000000000E+00               0
GRID*               1730               03.0306089712E+011.9355283031E-01+
*       0.0000000000E+00               0
GRID*               1731               03.0311170026E+011.7959060708E-01+
*       0.0000000000E+00               0
GRID*               1732               03.0334306013E+012.4699622919E-01+
*       0.0000000000E+00               0
GRID*               1733               03.0384131269E+012.2700778422E-01+
*       0.0000000000E+00               0
GRID*               1734               03.0368600052E+012.3575807053E-01+
*       0.0000000000E+00               0
GRID*               1735               03.0382970314E+012.4256642398E-01+
*       0.0000000000E+00               0
GRID*               1736               03.0353169394E+012.4072566225E-01+
*       0.0000000000E+00               0
GRID*               1737               03.0348575715E+012.5758727723E-01+
*       0.0000000000E+00               0
GRID*               1738               03.0432155829E+012.7125375580E-01+
*       0.0000000000E+00               0
GRID*               1739               03.0386346584E+012.5958443432E-01+
*       0.0000000000E+00               0
GRID*               1740               03.0364882505E+012.7157008861E-01+
*       0.0000000000E+00               0
GRID*               1741               03.0383789993E+012.7983781263E-01+
*       0.0000000000E+00               0
GRID*               1742               03.0408566227E+012.9600818696E-01+
*       0.0000000000E+00               0
GRID*               1743               03.0435467984E+012.9940978442E-01+
*       0.0000000000E+00               0
GRID*               1744               03.0450892502E+013.2499748065E-01+
*       0.0000000000E+00               0
GRID*               1745               03.0515247152E+014.1853044337E-01+
*       0.0000000000E+00               0
GRID*               1746               03.0491647325E+013.8333729515E-01+
*       0.0000000000E+00               0
GRID*               1747               03.0468681055E+013.5661638568E-01+
*       0.0000000000E+00               0
GRID*               1748               02.9655005460E+011.5121751321E+00+
*       0.0000000000E+00               0
GRID*               1749               02.9763622371E+011.2528678599E+00+
*       0.0000000000E+00               0
GRID*               1750               02.9864770753E+019.4839359568E-01+
*       0.0000000000E+00               0
GRID*               1751               02.9945771599E+016.0096912915E-01+
*       0.0000000000E+00               0
GRID*               1752               02.9979652390E+013.6822369460E-01+
*       0.0000000000E+00               0
GRID*               1753               02.9988471344E+012.7721944520E-01+
*       0.0000000000E+00               0
GRID*               1754               02.9994325693E+011.9443823983E-01+
*       0.0000000000E+00               0
GRID*               1755               02.9997880871E+011.1884933531E-01+
*       0.0000000000E+00               0
GRID*               1756               02.9711529320E+011.3834501969E+00+
*       0.0000000000E+00               0
GRID*               1757               02.9601757979E+011.6240503885E+00+
*       0.0000000000E+00               0
GRID*               1758               02.9817383900E+011.1016892895E+00+
*       0.0000000000E+00               0
GRID*               1759               02.9909602712E+017.7569114595E-01+
*       0.0000000000E+00               0
GRID*               1760               02.9964715146E+014.8488807301E-01+
*       0.0000000000E+00               0
GRID*               1761               02.9984371129E+013.2275148217E-01+
*       0.0000000000E+00               0
GRID*               1762               02.9991653170E+012.3584689831E-01+
*       0.0000000000E+00               0
GRID*               1763               02.9998930908E+018.4427571722E-02+
*       0.0000000000E+00               0
GRID*               1764               02.9996316971E+011.5665380801E-01+
*       0.0000000000E+00               0
GRID*               1765               03.0074466141E+014.8437103103E-02+
*       0.0000000000E+00               0
GRID*               1766               03.0134238990E+014.4724135472E-02+
*       0.0000000000E+00               0
GRID*               1767               03.0181895053E+013.9778155630E-02+
*       0.0000000000E+00               0
GRID*               1768               03.0219797734E+013.4053218931E-02+
*       0.0000000000E+00               0
GRID*               1769               03.0249806526E+012.7708443360E-02+
*       0.0000000000E+00               0
GRID*               1770               03.0273294251E+012.0595092825E-02+
*       0.0000000000E+00               0
GRID*               1771               03.0290979853E+011.2129879788E-02+
*       0.0000000000E+00               0
GRID*               1772               03.0296964168E+017.0725567678E-03+
*       0.0000000000E+00               0
GRID*               1773               03.0282448325E+011.6979157901E-02+
*       0.0000000000E+00               0
GRID*               1774               03.0234851492E+013.1145700955E-02+
*       0.0000000000E+00               0
GRID*               1775               03.0261664214E+012.4553327796E-02+
*       0.0000000000E+00               0
GRID*               1776               03.0104370616E+014.6880654769E-02+
*       0.0000000000E+00               0
GRID*               1777               03.0037053507E+014.9625000417E-02+
*       0.0000000000E+00               0
GRID*               1778               03.0158090877E+014.2494031933E-02+
*       0.0000000000E+00               0
GRID*               1779               03.0200877626E+013.7142526323E-02+
*       0.0000000000E+00               0
GRID*               1780               03.0315224500E+010.0000000000E+00+
*       0.0000000000E+00               0
GRID*               1781               03.0330668857E+010.0000000000E+00+
*       0.0000000000E+00               0
GRID*               1782               03.0346567886E+010.0000000000E+00+
*       0.0000000000E+00               0
GRID*               1783               03.0363182113E+010.0000000000E+00+
*       0.0000000000E+00               0
GRID*               1784               03.0380816467E+010.0000000000E+00+
*       0.0000000000E+00               0
GRID*               1785               03.0399843714E+010.0000000000E+00+
*       0.0000000000E+00               0
GRID*               1786               03.0420737679E+010.0000000000E+00+
*       0.0000000000E+00               0
GRID*               1787               03.0444122517E+010.0000000000E+00+
*       0.0000000000E+00               0
GRID*               1788               03.0470848707E+010.0000000000E+00+
*       0.0000000000E+00               0
GRID*               1789               03.0502114343E+010.0000000000E+00+
*       0.0000000000E+00               0
GRID*               1790               03.0539664876E+010.0000000000E+00+
*       0.0000000000E+00               0
GRID*               1791               03.0586130531E+010.0000000000E+00+
*       0.0000000000E+00               0
GRID*               1792               03.0645601463E+010.0000000000E+00+
*       0.0000000000E+00               0
GRID*               1793               03.0724570540E+010.0000000000E+00+
*       0.0000000000E+00               0
GRID*               1794               03.0833183062E+010.0000000000E+00+
*       0.0000000000E+00               0
GRID*               1795               03.0985352792E+010.0000000000E+00+
*       0.0000000000E+00               0
GRID*               1796               03.1191910508E+010.0000000000E+00+
*       0.0000000000E+00               0
GRID*               1797               03.0410290697E+010.0000000000E+00+
*       0.0000000000E+00               0
GRID*               1798               03.0322946679E+010.0000000000E+00+
*       0.0000000000E+00               0
GRID*               1799               03.0338618372E+010.0000000000E+00+
*       0.0000000000E+00               0
GRID*               1800               03.0354875000E+010.0000000000E+00+
*       0.0000000000E+00               0
GRID*               1801               03.0390330090E+010.0000000000E+00+
*       0.0000000000E+00               0
GRID*               1802               03.0371999290E+010.0000000000E+00+
*       0.0000000000E+00               0
GRID*               1803               03.0307612822E+010.0000000000E+00+
*       0.0000000000E+00               0
GRID*               1804               03.0432430098E+010.0000000000E+00+
*       0.0000000000E+00               0
GRID*               1805               03.0457485612E+010.0000000000E+00+
*       0.0000000000E+00               0
GRID*               1806               03.0562897704E+010.0000000000E+00+
*       0.0000000000E+00               0
GRID*               1807               03.0486481525E+010.0000000000E+00+
*       0.0000000000E+00               0
GRID*               1808               03.0520889610E+010.0000000000E+00+
*       0.0000000000E+00               0
GRID*               1809               03.0685086002E+010.0000000000E+00+
*       0.0000000000E+00               0
GRID*               1810               03.0615865997E+010.0000000000E+00+
*       0.0000000000E+00               0
GRID*               1811               03.0778876801E+010.0000000000E+00+
*       0.0000000000E+00               0
GRID*               1812               03.1088631650E+010.0000000000E+00+
*       0.0000000000E+00               0
GRID*               1813               03.1316580178E+010.0000000000E+00+
*       0.0000000000E+00               0
GRID*               1814               03.0909267927E+010.0000000000E+00+
*       0.0000000000E+00               0
GRID*               1815               02.9999624252E+014.9999963492E-02+
*       0.0000000000E+00               0
GRID*               1816               03.0300001144E+010.0000000000E+00+
*       0.0000000000E+00               0
$*
$* ELEMENT CARDS
$*
$*  Mesh Collector: ThinShell(1)
$*  Mesh: 2d_mesh(1)
CTRIA6         1       1     894       8     893     202     203     895
CTRIA6         2       1       9     862       8     204     205     206
CTRIA6         3       1     968       9     859     207     208     860
CTRIA6         4       1     968     862       9     874     204     207
CTRIA6         5       1     894       9       8     209     206     202
CTRIA6         6       1       9     967     859     210     861     208
CTRIA6         7       1       9     894     967     209     896     210
CTRIA6         8       1     863       8     862     211     205     875
CTRIA6         9       1       8       7     893     212     213     203
CTRIA6        10       1       6     863     864     214     876     215
CTRIA6        11       1     863       7       8     216     212     211
CTRIA6        12       1     863       6       7     214     217     216
CTRIA6        13       1      10     890     891     218     897     219
CTRIA6        14       1       4      11       3     220     221     222
CTRIA6        15       1     890       5     889     223     224     898
CTRIA6        16       1     890      10       5     218     225     223
CTRIA6        17       1       5      11       4     226     220     227
CTRIA6        18       1       5      10      11     225     228     226
CTRIA6        19       1       7     892     893     229     899     213
CTRIA6        20       1      12     892       7     230     229     231
CTRIA6        21       1     891      13      10     232     233     219
CTRIA6        22       1      13     892      12     234     230     235
CTRIA6        23       1      13     891     892     232     900     234
CTRIA6        24       1       6      12       7     236     231     217
CTRIA6        25       1      12      14      13     237     238     235
CTRIA6        26       1      12       6      14     236     239     237
CTRIA6        27       1      15      13      14     240     238     241
CTRIA6        28       1      10      15      11     242     243     228
CTRIA6        29       1      10      13      15     233     240     242
CTRIA6        30       1     864      14       6     244     239     215
CTRIA6        31       1       2      17     119     245     246     247
CTRIA6        32       1      11      16       3     248     249     221
CTRIA6        33       1      11      15      16     243     250     248
CTRIA6        34       1       3      17       2     251     245     252
CTRIA6        35       1       3      16      17     249     253     251
CTRIA6        36       1       1     866     867     254     877     255
CTRIA6        37       1       1      17     866     256     257     254
CTRIA6        38       1     865      14     864     258     244     878
CTRIA6        39       1     866      16     865     259     260     879
CTRIA6        40       1     866      17      16     257     253     259
CTRIA6        41       1     865      15      14     261     241     258
CTRIA6        42       1     865      16      15     260     250     261
CTRIA6        43       1      38     906     907     262     921     263
CTRIA6        44       1      45      38      39     264     265     266
CTRIA6        45       1     906      45     905     267     268     922
CTRIA6        46       1     906      38      45     262     264     267
CTRIA6        47       1     905      44     904     269     270     923
CTRIA6        48       1     905      45      44     268     271     269
CTRIA6        49       1      43      39      40     272     273     274
CTRIA6        50       1      45      43      44     275     276     271
CTRIA6        51       1      45      39      43     266     272     275
CTRIA6        52       1      40      47      43     277     278     274
CTRIA6        53       1      40      41      47     279     280     277
CTRIA6        54       1      37      42      36     281     282     283
CTRIA6        55       1      37      46      42     284     285     281
CTRIA6        56       1      41      46      47     286     287     280
CTRIA6        57       1      41      42      46     288     285     286
CTRIA6        58       1     948      46      37     289     284     290
CTRIA6        59       1     904     946     972     291     956     924
CTRIA6        60       1     904      44     946     270     292     291
CTRIA6        61       1      46     947      47     293     294     287
CTRIA6        62       1      46     948     947     289     957     293
CTRIA6        63       1      47     947      48     294     295     296
CTRIA6        64       1     946      48     947     297     295     958
CTRIA6        65       1      48      43      47     298     278     296
CTRIA6        66       1      44      48     946     299     297     292
CTRIA6        67       1      44      43      48     276     298     299
CTRIA6        68       1      52      53      51     300     301     302
CTRIA6        69       1      31      52      30     303     304     305
CTRIA6        70       1      53      31      32     306     307     308
CTRIA6        71       1      53      52      31     300     303     306
CTRIA6        72       1      49      40      39     309     273     310
CTRIA6        73       1      54      49      50     311     312     313
CTRIA6        74       1      40      54      41     314     315     279
CTRIA6        75       1      40      49      54     309     311     314
CTRIA6        76       1      55      51      53     316     301     317
CTRIA6        77       1      50      55      54     318     319     313
CTRIA6        78       1      50      51      55     320     316     318
CTRIA6        79       1      53      56      55     321     322     317
CTRIA6        80       1      56      32      33     323     324     325
CTRIA6        81       1      56      53      32     321     308     323
CTRIA6        82       1      36      56      33     326     325     327
CTRIA6        83       1      41      57      42     328     329     288
CTRIA6        84       1      57      54      55     330     319     331
CTRIA6        85       1      57      41      54     328     315     330
CTRIA6        86       1      56      57      55     332     331     322
CTRIA6        87       1      42      56      36     333     326     282
CTRIA6        88       1      42      57      56     329     332     333
CTRIA6        89       1      58      39      38     334     265     335
CTRIA6        90       1      49      58      59     336     337     338
CTRIA6        91       1      49      39      58     310     334     336
CTRIA6        92       1      50      60      51     339     340     320
CTRIA6        93       1      59      50      49     341     312     338
CTRIA6        94       1      59      60      50     342     339     341
CTRIA6        95       1      51      61      52     343     344     302
CTRIA6        96       1      51      60      61     340     345     343
CTRIA6        97       1      30      62      29     346     347     348
CTRIA6        98       1      62      52      61     349     344     350
CTRIA6        99       1      62      30      52     346     304     349
CTRIA6       100       1      67      59      58     351     337     352
CTRIA6       101       1      70      67      68     353     354     355
CTRIA6       102       1      59      70      60     356     357     342
CTRIA6       103       1      59      67      70     351     353     356
CTRIA6       104       1      60      71      61     358     359     345
CTRIA6       105       1      60      70      71     357     360     358
CTRIA6       106       1      71      68      69     361     362     363
CTRIA6       107       1      71      70      68     360     355     361
CTRIA6       108       1      69      65      71     364     365     363
CTRIA6       109       1      69      64      65     366     367     364
CTRIA6       110       1      61      66      62     368     369     350
CTRIA6       111       1      66      71      65     370     365     371
CTRIA6       112       1      66      61      71     368     359     370
CTRIA6       113       1      72      38     907     372     263     373
CTRIA6       114       1      58      72      67     374     375     352
CTRIA6       115       1      58      38      72     335     372     374
CTRIA6       116       1      67      73      68     376     377     354
CTRIA6       117       1      72      73      67     378     376     375
CTRIA6       118       1     908      72     907     379     373     925
CTRIA6       119       1     908      73      72     380     378     379
CTRIA6       120       1      74      68      73     381     377     382
CTRIA6       121       1      64      75      63     383     384     385
CTRIA6       122       1      64      69      75     366     386     383
CTRIA6       123       1      74      69      68     387     362     381
CTRIA6       124       1      74      75      69     388     386     387
CTRIA6       125       1     909      73     908     389     380     926
CTRIA6       126       1     909      74      73     390     382     389
CTRIA6       127       1     909     910      74     927     391     390
CTRIA6       128       1      63     911     912     392     928     393
CTRIA6       129       1      75     911      63     394     392     384
CTRIA6       130       1     910      75      74     395     388     391
CTRIA6       131       1     910     911      75     929     394     395
CTRIA6       132       1      27      78      26     396     397     398
CTRIA6       133       1      76      64      63     399     385     400
CTRIA6       134       1      78      79      77     401     402     403
CTRIA6       135       1      79      27      28     404     405     406
CTRIA6       136       1      79      78      27     401     396     404
CTRIA6       137       1      80      29      62     407     347     408
CTRIA6       138       1      28      80      79     409     410     406
CTRIA6       139       1      28      29      80     411     407     409
CTRIA6       140       1      66      80      62     412     408     369
CTRIA6       141       1      80      81      79     413     414     410
CTRIA6       142       1      81      66      65     415     371     416
CTRIA6       143       1      81      80      66     413     412     415
CTRIA6       144       1      77      81      76     417     418     419
CTRIA6       145       1      77      79      81     402     414     417
CTRIA6       146       1      76      65      64     420     367     399
CTRIA6       147       1      76      81      65     418     416     420
CTRIA6       148       1      18     939     940     421     942     422
CTRIA6       149       1      82      63     912     423     393     424
CTRIA6       150       1      76      82      83     425     426     427
CTRIA6       151       1      76      63      82     400     423     425
CTRIA6       152       1      83      77      76     428     419     427
CTRIA6       153       1      83      84      77     429     430     428
CTRIA6       154       1      26      85      25     431     432     433
CTRIA6       155       1      84      78      77     434     403     430
CTRIA6       156       1      78      85      26     435     431     397
CTRIA6       157       1      78      84      85     434     436     435
CTRIA6       158       1      86     913     914     437     930     438
CTRIA6       159       1      82      86      83     439     440     426
CTRIA6       160       1     913      82     912     441     424     931
CTRIA6       161       1     913      86      82     437     439     441
CTRIA6       162       1      25      89      24     442     443     444
CTRIA6       163       1      89      85      88     445     446     447
CTRIA6       164       1      89      25      85     442     432     445
CTRIA6       165       1      87      86     914     448     438     449
CTRIA6       166       1      88      90      87     450     451     452
CTRIA6       167       1      84      88      85     453     446     436
CTRIA6       168       1      84      90      88     454     450     453
CTRIA6       169       1      83      90      84     455     454     429
CTRIA6       170       1      90      86      87     456     448     451
CTRIA6       171       1      90      83      86     455     440     456
CTRIA6       172       1      87      91      88     457     458     452
CTRIA6       173       1     915      87     914     459     449     932
CTRIA6       174       1     915      91      87     460     457     459
CTRIA6       175       1      88      92      89     461     462     447
CTRIA6       176       1      88      91      92     458     463     461
CTRIA6       177       1      93      89      92     464     462     465
CTRIA6       178       1      24      93      23     466     467     468
CTRIA6       179       1      24      89      93     443     464     466
CTRIA6       180       1      23      96      22     469     470     471
CTRIA6       181       1      23      93      96     467     472     469
CTRIA6       182       1      95      93      92     473     465     474
CTRIA6       183       1      95      96      93     475     472     473
CTRIA6       184       1     916      91     915     476     460     933
CTRIA6       185       1     916      94      91     477     478     476
CTRIA6       186       1      92      94      95     479     480     474
CTRIA6       187       1      92      91      94     463     478     479
CTRIA6       188       1      97     917     918     481     934     482
CTRIA6       189       1     917      94     916     483     477     935
CTRIA6       190       1      97      94     917     484     483     481
CTRIA6       191       1      95      97      96     485     486     475
CTRIA6       192       1      95      94      97     480     484     485
CTRIA6       193       1      22      98      21     487     488     489
CTRIA6       194       1      98      96      97     490     486     491
CTRIA6       195       1      98      22      96     487     470     490
CTRIA6       196       1      21     100      20     492     493     494
CTRIA6       197       1      21      98     100     488     495     492
CTRIA6       198       1      98      99     100     496     497     495
CTRIA6       199       1      99      97     918     498     482     499
CTRIA6       200       1      99      98      97     496     491     498
CTRIA6       201       1      18     102     939     500     501     421
CTRIA6       202       1      19     102      18     502     500     503
CTRIA6       203       1     102     103     101     504     505     506
CTRIA6       204       1     102      19     103     502     507     504
CTRIA6       205       1     101     100      99     508     497     509
CTRIA6       206       1     101     103     100     505     510     508
CTRIA6       207       1      20     103      19     511     507     512
CTRIA6       208       1      20     100     103     493     510     511
CTRIA6       209       1      99     919     101     513     514     509
CTRIA6       210       1      99     918     919     499     936     513
CTRIA6       211       1     970     102     920     515     516     937
CTRIA6       212       1     970     939     102     943     501     515
CTRIA6       213       1     920     101     919     517     514     938
CTRIA6       214       1     920     102     101     516     506     517
CTRIA6       215       1     950      35     951     518     519     959
CTRIA6       216       1      37     949     948     520     960     290
CTRIA6       217       1     949     104     950     521     522     961
CTRIA6       218       1     104      37      36     523     283     524
CTRIA6       219       1     104     949      37     521     520     523
CTRIA6       220       1      35     104      34     525     526     527
CTRIA6       221       1      35     950     104     518     522     525
CTRIA6       222       1      34      36      33     528     327     529
CTRIA6       223       1      34     104      36     526     524     528
CTRIA6       224       1     110       3       2     530     252     531
CTRIA6       225       1     889     114     888     532     533     901
CTRIA6       226       1       5     114     889     534     532     224
CTRIA6       227       1       5     113     114     535     536     534
CTRIA6       228       1       4     113       5     537     535     227
CTRIA6       229       1     113       4     112     537     538     539
CTRIA6       230       1     111       3     110     540     530     541
CTRIA6       231       1       4     111     112     542     543     538
CTRIA6       232       1       4       3     111     222     540     542
CTRIA6       233       1     116     868     869     544     880     545
CTRIA6       234       1       1     117     115     546     547     548
CTRIA6       235       1       1     867     117     255     549     546
CTRIA6       236       1     117     116     115     550     551     547
CTRIA6       237       1     868     117     867     552     549     881
CTRIA6       238       1     868     116     117     544     550     552
CTRIA6       239       1     116     106     115     553     554     551
CTRIA6       240       1     116     105     106     555     556     553
CTRIA6       241       1     105     869     870     557     882     558
CTRIA6       242       1     105     116     869     555     545     557
CTRIA6       243       1     107     115     106     559     554     560
CTRIA6       244       1     115     118       1     561     562     548
CTRIA6       245       1     118     107     108     563     564     565
CTRIA6       246       1     118     115     107     561     559     563
CTRIA6       247       1     109     119     108     566     567     568
CTRIA6       248       1       2     109     110     569     570     531
CTRIA6       249       1       2     119     109     247     566     569
CTRIA6       250       1      17       1     119     256     571     246
CTRIA6       251       1       1     118     119     562     572     571
CTRIA6       252       1     118     108     119     565     567     572
CTRIA6       253       1     127     120     121     573     574     575
CTRIA6       254       1     128     120     127     576     573     577
CTRIA6       255       1     106     128     107     578     579     560
CTRIA6       256       1     106     120     128     580     576     578
CTRIA6       257       1     124     954     953     581     962     582
CTRIA6       258       1     124     123     954     583     584     581
CTRIA6       259       1     124     125     123     585     586     583
CTRIA6       260       1     121     126     127     587     588     575
CTRIA6       261       1     125     122     123     589     590     586
CTRIA6       262       1     122     126     121     591     587     592
CTRIA6       263       1     122     125     126     589     593     591
CTRIA6       264       1     108     133     109     594     595     568
CTRIA6       265       1     139     134     135     596     597     598
CTRIA6       266       1     131     139     130     599     600     601
CTRIA6       267       1     134     131     132     602     603     604
CTRIA6       268       1     134     139     131     596     599     602
CTRIA6       269       1      34     138      35     605     606     527
CTRIA6       270       1     142      34      33     607     529     608
CTRIA6       271       1     138     142     137     609     610     611
CTRIA6       272       1     138      34     142     605     607     609
CTRIA6       273       1     137     141     136     612     613     614
CTRIA6       274       1     137     142     141     610     615     612
CTRIA6       275       1     140      33      32     616     324     617
CTRIA6       276       1     142     140     141     618     619     615
CTRIA6       277       1     142      33     140     608     616     618
CTRIA6       278       1     135     143     139     620     621     598
CTRIA6       279       1     136     143     135     622     620     623
CTRIA6       280       1     143     141     144     624     625     626
CTRIA6       281       1     143     136     141     622     613     624
CTRIA6       282       1     144      32      31     627     307     628
CTRIA6       283       1     140     144     141     629     625     619
CTRIA6       284       1     140      32     144     617     627     629
CTRIA6       285       1     145     139     143     630     621     631
CTRIA6       286       1     130     145     129     632     633     634
CTRIA6       287       1     130     139     145     600     630     632
CTRIA6       288       1     129      30      29     635     348     636
CTRIA6       289       1     129     145      30     633     637     635
CTRIA6       290       1     144     145     143     638     631     626
CTRIA6       291       1     145      31      30     639     305     637
CTRIA6       292       1     145     144      31     638     628     639
CTRIA6       293       1     146      35     138     640     606     641
CTRIA6       294       1     951     146     952     642     643     963
CTRIA6       295       1     951      35     146     519     640     642
CTRIA6       296       1     150     147     148     644     645     646
CTRIA6       297       1     147     133     108     647     594     648
CTRIA6       298       1     147     150     133     644     649     647
CTRIA6       299       1     132     150     134     650     651     604
CTRIA6       300       1     132     133     150     652     649     650
CTRIA6       301       1     134     149     135     653     654     597
CTRIA6       302       1     149     134     150     653     651     655
CTRIA6       303       1     148     149     150     656     655     646
CTRIA6       304       1     138     153     146     657     658     641
CTRIA6       305       1     153     137     152     659     660     661
CTRIA6       306       1     153     138     137     657     611     659
CTRIA6       307       1     135     151     136     662     663     623
CTRIA6       308       1     135     149     151     654     664     662
CTRIA6       309       1     136     152     137     665     660     614
CTRIA6       310       1     136     151     152     663     666     665
CTRIA6       311       1     154     127     126     667     588     668
CTRIA6       312       1     156     154     155     669     670     671
CTRIA6       313       1     127     156     128     672     673     577
CTRIA6       314       1     127     154     156     667     669     672
CTRIA6       315       1     107     147     108     674     648     564
CTRIA6       316       1     148     156     155     675     671     676
CTRIA6       317       1     148     147     156     645     677     675
CTRIA6       318       1     128     147     107     678     674     579
CTRIA6       319       1     128     156     147     673     677     678
CTRIA6       320       1     155     149     148     679     656     676
CTRIA6       321       1     157     146     153     680     658     681
CTRIA6       322       1     952     157     953     682     683     964
CTRIA6       323       1     952     146     157     643     680     682
CTRIA6       324       1     159     125     158     684     685     686
CTRIA6       325       1     126     159     154     687     688     668
CTRIA6       326       1     126     125     159     593     684     687
CTRIA6       327       1     124     158     125     689     685     585
CTRIA6       328       1     157     124     953     690     582     683
CTRIA6       329       1     157     158     124     691     689     690
CTRIA6       330       1     160     153     152     692     661     693
CTRIA6       331       1     157     160     158     694     695     691
CTRIA6       332       1     157     153     160     681     692     694
CTRIA6       333       1     151     155     161     696     697     698
CTRIA6       334       1     151     149     155     664     679     696
CTRIA6       335       1     161     154     159     699     688     700
CTRIA6       336       1     161     155     154     697     670     699
CTRIA6       337       1     161     152     151     701     666     698
CTRIA6       338       1     161     160     152     702     693     701
CTRIA6       339       1     160     159     158     703     686     695
CTRIA6       340       1     160     161     159     702     700     703
CTRIA6       341       1     165     131     130     704     601     705
CTRIA6       342       1     131     168     132     706     707     603
CTRIA6       343       1     168     165     166     708     709     710
CTRIA6       344       1     168     131     165     706     704     708
CTRIA6       345       1     167     170     166     711     712     713
CTRIA6       346       1     110     164     111     714     715     541
CTRIA6       347       1     164     169     167     716     717     718
CTRIA6       348       1     164     110     169     714     719     716
CTRIA6       349       1     168     170     132     720     721     707
CTRIA6       350       1     170     167     169     711     717     722
CTRIA6       351       1     170     168     166     720     710     712
CTRIA6       352       1     170     133     132     723     652     721
CTRIA6       353       1     109     169     110     724     719     570
CTRIA6       354       1     169     133     170     725     723     722
CTRIA6       355       1     169     109     133     724     595     725
CTRIA6       356       1     162      25      24     726     444     727
CTRIA6       357       1     162     173      25     728     729     726
CTRIA6       358       1     172     174     171     730     731     732
CTRIA6       359       1     173      26      25     733     433     729
CTRIA6       360       1     173     172      26     734     735     733
CTRIA6       361       1     166     174     167     736     737     713
CTRIA6       362       1     174     172     173     730     734     738
CTRIA6       363       1     174     166     171     736     739     731
CTRIA6       364       1     163     173     162     740     728     741
CTRIA6       365       1     167     163     164     742     743     718
CTRIA6       366       1     163     174     173     744     738     740
CTRIA6       367       1     163     167     174     742     737     744
CTRIA6       368       1     172      27      26     745     398     735
CTRIA6       369       1     165     171     166     746     739     709
CTRIA6       370       1     175     172     171     747     732     748
CTRIA6       371       1      27     175      28     749     750     405
CTRIA6       372       1      27     172     175     745     747     749
CTRIA6       373       1      29     176     129     751     752     636
CTRIA6       374       1     176      28     175     753     750     754
CTRIA6       375       1     176      29      28     751     411     753
CTRIA6       376       1     171     177     175     755     756     748
CTRIA6       377       1     171     165     177     746     757     755
CTRIA6       378       1     177     176     175     758     754     756
CTRIA6       379       1     130     177     165     759     757     705
CTRIA6       380       1     177     130     129     759     634     760
CTRIA6       381       1     176     177     129     758     760     752
CTRIA6       382       1     112     180     113     761     762     539
CTRIA6       383       1     181     164     163     763     743     764
CTRIA6       384       1     182     183     181     765     766     767
CTRIA6       385       1     112     182     180     768     769     761
CTRIA6       386       1     112     183     182     770     765     768
CTRIA6       387       1     183     164     181     771     763     766
CTRIA6       388       1     111     183     112     772     770     543
CTRIA6       389       1     111     164     183     715     771     772
CTRIA6       390       1     182     179     180     773     774     769
CTRIA6       391       1     184     182     181     775     767     776
CTRIA6       392       1     179     185     178     777     778     779
CTRIA6       393       1     184     179     182     780     773     775
CTRIA6       394       1     184     185     179     781     777     780
CTRIA6       395       1     181     186     184     782     783     776
CTRIA6       396       1     186     163     162     784     741     785
CTRIA6       397       1     186     181     163     782     764     784
CTRIA6       398       1     162     187     186     786     787     785
CTRIA6       399       1     187      24      23     788     468     789
CTRIA6       400       1     187     162      24     786     727     788
CTRIA6       401       1     184     188     185     790     791     781
CTRIA6       402       1     188     186     187     792     787     793
CTRIA6       403       1     188     184     186     790     783     792
CTRIA6       404       1     178      22      21     794     489     795
CTRIA6       405       1      23     188     187     796     793     789
CTRIA6       406       1      23      22     188     471     797     796
CTRIA6       407       1     185      22     178     798     794     778
CTRIA6       408       1     185     188      22     791     797     798
CTRIA6       409       1     193     189     190     799     800     801
CTRIA6       410       1     189     179     178     802     779     803
CTRIA6       411       1     179     193     180     804     805     774
CTRIA6       412       1     179     189     193     802     799     804
CTRIA6       413       1     888     192     887     806     807     902
CTRIA6       414       1     888     114     192     533     808     806
CTRIA6       415       1     191     193     190     809     801     810
CTRIA6       416       1     194     192     114     811     808     812
CTRIA6       417       1     194     191     192     813     814     811
CTRIA6       418       1     113     194     114     815     812     536
CTRIA6       419       1     194     193     191     816     809     813
CTRIA6       420       1     180     194     113     817     815     762
CTRIA6       421       1     180     193     194     805     816     817
CTRIA6       422       1     178     195     189     818     819     803
CTRIA6       423       1     195      21      20     820     494     821
CTRIA6       424       1     195     178      21     818     795     820
CTRIA6       425       1     196      20      19     822     512     823
CTRIA6       426       1     189     196     190     824     825     800
CTRIA6       427       1     196     195      20     826     821     822
CTRIA6       428       1     196     189     195     824     819     826
CTRIA6       429       1     197      19      18     827     503     828
CTRIA6       430       1     197     196      19     829     823     827
CTRIA6       431       1     190     197     191     830     831     810
CTRIA6       432       1     190     196     197     825     829     830
CTRIA6       433       1      18     198     197     832     833     828
CTRIA6       434       1     198     940     941     834     944     835
CTRIA6       435       1     198      18     940     832     422     834
CTRIA6       436       1     197     192     191     836     814     831
CTRIA6       437       1     197     198     192     833     837     836
CTRIA6       438       1     887     941     969     838     945     903
CTRIA6       439       1     198     887     192     839     807     837
CTRIA6       440       1     198     941     887     835     838     839
CTRIA6       441       1     971     200     873     840     841     883
CTRIA6       442       1     955     200     971     842     840     965
CTRIA6       443       1     123     955     954     843     966     584
CTRIA6       444       1     123     200     955     844     842     843
CTRIA6       445       1     873     199     872     845     846     884
CTRIA6       446       1     873     200     199     841     847     845
CTRIA6       447       1     122     200     123     848     844     590
CTRIA6       448       1     122     199     200     849     847     848
CTRIA6       449       1     105     120     106     850     580     556
CTRIA6       450       1     870     201     105     851     852     558
CTRIA6       451       1     870     871     201     885     853     851
CTRIA6       452       1     201     872     199     854     846     855
CTRIA6       453       1     201     871     872     853     886     854
CTRIA6       454       1     120     201     121     856     857     574
CTRIA6       455       1     120     105     201     850     852     856
CTRIA6       456       1     121     199     122     858     849     592
CTRIA6       457       1     121     201     199     857     855     858
$*  Mesh Collector: ThinShell(1)
$*  Mesh: 2d_mesh(2)
CTRIA6       458       1     982    1748    1749    1156    1756    1157
CTRIA6       459       1     955     982     954    1158    1159     966
CTRIA6       460       1    1748     955     971    1160     965    1757
CTRIA6       461       1    1748     982     955    1156    1158    1160
CTRIA6       462       1    1749     985     982    1161    1162    1157
CTRIA6       463       1     985    1750     984    1163    1164    1165
CTRIA6       464       1     985    1749    1750    1161    1758    1163
CTRIA6       465       1     983     973     992    1166    1167    1168
CTRIA6       466       1    1751     984    1750    1169    1164    1759
CTRIA6       467       1     983    1751     973    1170    1171    1166
CTRIA6       468       1     983     984    1751    1172    1169    1170
CTRIA6       469       1     991     975     976    1173    1174    1175
CTRIA6       470       1     983     992     990    1168    1176    1177
CTRIA6       471       1     973     974     992    1178    1179    1167
CTRIA6       472       1     992     991     990    1180    1181    1176
CTRIA6       473       1     975     992     974    1182    1179    1183
CTRIA6       474       1     975     991     992    1173    1180    1182
CTRIA6       475       1     947     981     946    1184    1185     958
CTRIA6       476       1     947     986     981    1186    1187    1184
CTRIA6       477       1     976     994     991    1188    1189    1175
CTRIA6       478       1     994     977     993    1190    1191    1192
CTRIA6       479       1     994     976     977    1188    1193    1190
CTRIA6       480       1     994     989     990    1194    1195    1196
CTRIA6       481       1     994     990     991    1196    1181    1189
CTRIA6       482       1     989     993     988    1197    1198    1199
CTRIA6       483       1     989     994     993    1194    1192    1197
CTRIA6       484       1     986     980     981    1200    1201    1187
CTRIA6       485       1     986     987     980    1202    1203    1200
CTRIA6       486       1     978     993     977    1204    1191    1205
CTRIA6       487       1     995     987     988    1206    1207    1208
CTRIA6       488       1     987     979     980    1209    1210    1203
CTRIA6       489       1     987     995     979    1206    1211    1209
CTRIA6       490       1     995     978     979    1212    1213    1211
CTRIA6       491       1     993     995     988    1214    1208    1198
CTRIA6       492       1     993     978     995    1204    1212    1214
CTRIA6       493       1     948     986     947    1215    1186     957
CTRIA6       494       1     996     948     949    1216     960    1217
CTRIA6       495       1     986     996     987    1218    1219    1202
CTRIA6       496       1     986     948     996    1215    1216    1218
CTRIA6       497       1     997     987     996    1220    1219    1221
CTRIA6       498       1     988     997     989    1222    1223    1199
CTRIA6       499       1     988     987     997    1207    1220    1222
CTRIA6       500       1     983     998     984    1224    1225    1172
CTRIA6       501       1     998     989     997    1226    1223    1227
CTRIA6       502       1     990     998     983    1228    1224    1177
CTRIA6       503       1     990     989     998    1195    1226    1228
CTRIA6       504       1     984     999     985    1229    1230    1165
CTRIA6       505       1     984     998     999    1225    1231    1229
CTRIA6       506       1     953     982    1000    1232    1233    1234
CTRIA6       507       1     953     954     982     962    1159    1232
CTRIA6       508       1    1000     985     999    1235    1230    1236
CTRIA6       509       1    1000     982     985    1233    1162    1235
CTRIA6       510       1    1000     952     953    1237     964    1234
CTRIA6       511       1    1001    1000     999    1238    1236    1239
CTRIA6       512       1     952    1001     951    1240    1241     963
CTRIA6       513       1     952    1000    1001    1237    1238    1240
CTRIA6       514       1     999    1002    1001    1242    1243    1239
CTRIA6       515       1    1002     998     997    1244    1227    1245
CTRIA6       516       1    1002     999     998    1242    1231    1244
CTRIA6       517       1    1003     996     949    1246    1217    1247
CTRIA6       518       1     997    1003    1002    1248    1249    1245
CTRIA6       519       1     997     996    1003    1221    1246    1248
CTRIA6       520       1     950    1003     949    1250    1247     961
CTRIA6       521       1     950    1002    1003    1251    1249    1250
CTRIA6       522       1    1002     951    1001    1252    1241    1243
CTRIA6       523       1    1002     950     951    1251     959    1252
CTRIA6       524       1    1030    1023    1024    1253    1254    1255
CTRIA6       525       1    1019    1030    1018    1256    1257    1258
CTRIA6       526       1    1023    1019    1020    1259    1260    1261
CTRIA6       527       1    1023    1030    1019    1253    1256    1259
CTRIA6       528       1    1018    1029    1017    1262    1263    1264
CTRIA6       529       1    1027    1024    1025    1265    1266    1267
CTRIA6       530       1    1030    1029    1018    1268    1262    1257
CTRIA6       531       1    1030    1028    1029    1269    1270    1268
CTRIA6       532       1    1027    1030    1024    1271    1255    1265
CTRIA6       533       1    1027    1028    1030    1272    1269    1271
CTRIA6       534       1    1017    1785    1786    1273    1797    1274
CTRIA6       535       1    1781    1026    1780    1275    1276    1798
CTRIA6       536       1    1032    1781    1782    1277    1799    1278
CTRIA6       537       1    1026    1032    1025    1279    1280    1281
CTRIA6       538       1    1026    1781    1032    1275    1277    1279
CTRIA6       539       1    1032    1027    1025    1282    1267    1280
CTRIA6       540       1    1032    1031    1027    1283    1284    1282
CTRIA6       541       1    1031    1782    1783    1285    1800    1286
CTRIA6       542       1    1031    1032    1782    1283    1278    1285
CTRIA6       543       1    1785    1029    1784    1287    1288    1801
CTRIA6       544       1    1785    1017    1029    1273    1263    1287
CTRIA6       545       1    1031    1028    1027    1289    1272    1284
CTRIA6       546       1    1028    1784    1029    1290    1288    1270
CTRIA6       547       1    1783    1028    1031    1291    1289    1286
CTRIA6       548       1    1783    1784    1028    1802    1290    1291
CTRIA6       549       1    1020    1034    1023    1292    1293    1261
CTRIA6       550       1    1020    1021    1034    1294    1295    1292
CTRIA6       551       1    1021    1033    1034    1296    1297    1295
CTRIA6       552       1    1011    1022    1010    1298    1299    1300
CTRIA6       553       1    1022    1033    1021    1301    1296    1302
CTRIA6       554       1    1022    1011    1033    1298    1303    1301
CTRIA6       555       1    1035    1012    1013    1304    1305    1306
CTRIA6       556       1    1012    1033    1011    1307    1303    1308
CTRIA6       557       1    1033    1035    1034    1309    1310    1297
CTRIA6       558       1    1033    1012    1035    1307    1304    1309
CTRIA6       559       1    1023    1036    1024    1311    1312    1254
CTRIA6       560       1    1036    1034    1035    1313    1310    1314
CTRIA6       561       1    1036    1023    1034    1311    1293    1313
CTRIA6       562       1    1780    1039    1816    1315    1316    1803
CTRIA6       563       1    1039    1026    1038    1317    1318    1319
CTRIA6       564       1    1039    1780    1026    1315    1276    1317
CTRIA6       565       1    1024    1037    1025    1320    1321    1266
CTRIA6       566       1    1024    1036    1037    1312    1322    1320
CTRIA6       567       1    1025    1038    1026    1323    1318    1281
CTRIA6       568       1    1025    1037    1038    1321    1324    1323
CTRIA6       569       1    1039    1771    1816    1325    1772    1316
CTRIA6       570       1    1037    1041    1038    1326    1327    1324
CTRIA6       571       1    1035    1040    1036    1328    1329    1314
CTRIA6       572       1    1035    1013    1040    1306    1330    1328
CTRIA6       573       1    1036    1041    1037    1331    1326    1322
CTRIA6       574       1    1036    1040    1041    1329    1332    1331
CTRIA6       575       1    1014    1040    1013    1333    1330    1334
CTRIA6       576       1    1016    1040    1014    1335    1333    1336
CTRIA6       577       1    1042    1016    1770    1337    1338    1339
CTRIA6       578       1    1016    1041    1040    1340    1332    1335
CTRIA6       579       1    1016    1042    1041    1337    1341    1340
CTRIA6       580       1    1042    1038    1041    1342    1327    1341
CTRIA6       581       1    1771    1042    1770    1343    1339    1773
CTRIA6       582       1    1042    1039    1038    1344    1319    1342
CTRIA6       583       1    1042    1771    1039    1343    1325    1344
CTRIA6       584       1     977    1050     978    1345    1346    1205
CTRIA6       585       1    1004    1050     977    1347    1345    1348
CTRIA6       586       1    1050    1054    1049    1349    1350    1351
CTRIA6       587       1    1050    1004    1054    1347    1352    1349
CTRIA6       588       1    1049    1055    1048    1353    1354    1355
CTRIA6       589       1    1049    1054    1055    1350    1356    1353
CTRIA6       590       1    1005    1054    1004    1357    1352    1358
CTRIA6       591       1    1005    1055    1054    1359    1356    1357
CTRIA6       592       1    1006    1055    1005    1360    1359    1361
CTRIA6       593       1    1051    1008    1009    1362    1363    1364
CTRIA6       594       1    1056    1051    1052    1365    1366    1367
CTRIA6       595       1    1008    1056    1007    1368    1369    1370
CTRIA6       596       1    1008    1051    1056    1362    1365    1368
CTRIA6       597       1    1053    1058    1052    1371    1372    1373
CTRIA6       598       1    1048    1057    1047    1374    1375    1376
CTRIA6       599       1    1048    1055    1057    1354    1377    1374
CTRIA6       600       1    1053    1057    1058    1378    1379    1371
CTRIA6       601       1    1053    1047    1057    1380    1375    1378
CTRIA6       602       1    1058    1056    1052    1381    1367    1372
CTRIA6       603       1    1059    1155    1007    1382    1383    1384
CTRIA6       604       1    1006    1057    1055    1385    1377    1360
CTRIA6       605       1    1006    1059    1057    1386    1387    1385
CTRIA6       606       1    1056    1059    1007    1388    1384    1369
CTRIA6       607       1    1059    1058    1057    1389    1379    1387
CTRIA6       608       1    1059    1056    1058    1388    1381    1389
CTRIA6       609       1    1053    1046    1047    1390    1391    1380
CTRIA6       610       1    1060    1053    1052    1392    1373    1393
CTRIA6       611       1    1046    1061    1045    1394    1395    1396
CTRIA6       612       1    1060    1046    1053    1397    1390    1392
CTRIA6       613       1    1060    1061    1046    1398    1394    1397
CTRIA6       614       1    1043    1019    1018    1399    1258    1400
CTRIA6       615       1    1062    1043    1044    1401    1402    1403
CTRIA6       616       1    1019    1062    1020    1404    1405    1260
CTRIA6       617       1    1019    1043    1062    1399    1401    1404
CTRIA6       618       1    1064    1060    1065    1406    1407    1408
CTRIA6       619       1    1064    1061    1060    1409    1398    1406
CTRIA6       620       1    1065    1052    1051    1410    1366    1411
CTRIA6       621       1    1065    1060    1052    1407    1393    1410
CTRIA6       622       1    1065    1063    1064    1412    1413    1408
CTRIA6       623       1    1066    1022    1063    1414    1415    1416
CTRIA6       624       1    1010    1066    1009    1417    1418    1419
CTRIA6       625       1    1010    1022    1066    1299    1414    1417
CTRIA6       626       1    1066    1051    1009    1420    1364    1418
CTRIA6       627       1    1065    1066    1063    1421    1416    1412
CTRIA6       628       1    1065    1051    1066    1411    1420    1421
CTRIA6       629       1    1063    1021    1067    1422    1423    1424
CTRIA6       630       1    1063    1022    1021    1415    1302    1422
CTRIA6       631       1    1067    1020    1062    1425    1405    1426
CTRIA6       632       1    1067    1021    1020    1423    1294    1425
CTRIA6       633       1    1067    1064    1063    1427    1413    1424
CTRIA6       634       1    1068    1061    1064    1428    1409    1429
CTRIA6       635       1    1045    1068    1044    1430    1431    1432
CTRIA6       636       1    1045    1061    1068    1395    1428    1430
CTRIA6       637       1    1068    1062    1044    1433    1403    1431
CTRIA6       638       1    1067    1068    1064    1434    1429    1427
CTRIA6       639       1    1067    1062    1068    1426    1433    1434
CTRIA6       640       1    1074    1077    1073    1435    1436    1437
CTRIA6       641       1    1076    1074    1075    1438    1439    1440
CTRIA6       642       1    1076    1077    1074    1441    1435    1438
CTRIA6       643       1    1070    1075    1069    1442    1443    1444
CTRIA6       644       1    1076    1070    1071    1445    1446    1447
CTRIA6       645       1    1076    1075    1070    1440    1442    1445
CTRIA6       646       1    1046    1071    1047    1448    1449    1391
CTRIA6       647       1    1076    1046    1045    1450    1396    1451
CTRIA6       648       1    1076    1071    1046    1447    1448    1450
CTRIA6       649       1    1078    1045    1044    1452    1432    1453
CTRIA6       650       1    1045    1077    1076    1454    1441    1451
CTRIA6       651       1    1045    1078    1077    1452    1455    1454
CTRIA6       652       1    1073    1078    1072    1456    1457    1458
CTRIA6       653       1    1073    1077    1078    1436    1455    1456
CTRIA6       654       1    1072    1044    1043    1459    1402    1460
CTRIA6       655       1    1072    1078    1044    1457    1453    1459
CTRIA6       656       1    1079    1018    1017    1461    1264    1462
CTRIA6       657       1    1043    1079    1072    1463    1464    1460
CTRIA6       658       1    1043    1018    1079    1400    1461    1463
CTRIA6       659       1    1017    1081    1079    1465    1466    1462
CTRIA6       660       1    1081    1786    1787    1467    1804    1468
CTRIA6       661       1    1081    1017    1786    1465    1274    1467
CTRIA6       662       1    1079    1080    1072    1469    1470    1464
CTRIA6       663       1    1080    1787    1788    1471    1805    1472
CTRIA6       664       1    1081    1080    1079    1473    1469    1466
CTRIA6       665       1    1081    1787    1080    1468    1471    1473
CTRIA6       666       1    1069    1790    1791    1474    1806    1475
CTRIA6       667       1    1073    1080    1082    1476    1477    1478
CTRIA6       668       1    1073    1072    1080    1458    1470    1476
CTRIA6       669       1    1082    1788    1789    1479    1807    1480
CTRIA6       670       1    1082    1080    1788    1477    1472    1479
CTRIA6       671       1    1082    1074    1073    1481    1437    1478
CTRIA6       672       1    1790    1083    1789    1482    1483    1808
CTRIA6       673       1    1075    1790    1069    1484    1474    1443
CTRIA6       674       1    1075    1083    1790    1485    1482    1484
CTRIA6       675       1    1074    1083    1075    1486    1485    1439
CTRIA6       676       1    1083    1082    1789    1487    1480    1483
CTRIA6       677       1    1083    1074    1082    1486    1481    1487
CTRIA6       678       1    1048    1086    1049    1488    1489    1355
CTRIA6       679       1    1048    1087    1086    1490    1491    1488
CTRIA6       680       1    1087    1071    1070    1492    1446    1493
CTRIA6       681       1    1047    1087    1048    1494    1490    1376
CTRIA6       682       1    1047    1071    1087    1449    1492    1494
CTRIA6       683       1    1088    1087    1070    1495    1493    1496
CTRIA6       684       1    1087    1085    1086    1497    1498    1491
CTRIA6       685       1    1085    1088    1084    1499    1500    1501
CTRIA6       686       1    1085    1087    1088    1497    1495    1499
CTRIA6       687       1    1084    1792    1793    1502    1809    1503
CTRIA6       688       1    1088    1792    1084    1504    1502    1500
CTRIA6       689       1    1069    1088    1070    1505    1496    1444
CTRIA6       690       1    1088    1791    1792    1506    1810    1504
CTRIA6       691       1    1088    1069    1791    1505    1475    1506
CTRIA6       692       1     978    1090     979    1507    1508    1213
CTRIA6       693       1    1090    1050    1089    1509    1510    1511
CTRIA6       694       1    1090     978    1050    1507    1346    1509
CTRIA6       695       1    1089    1086    1085    1512    1498    1513
CTRIA6       696       1    1049    1089    1050    1514    1510    1351
CTRIA6       697       1    1049    1086    1089    1489    1512    1514
CTRIA6       698       1    1091    1793    1794    1515    1811    1516
CTRIA6       699       1    1085    1091    1089    1517    1518    1513
CTRIA6       700       1    1091    1084    1793    1519    1503    1515
CTRIA6       701       1    1091    1085    1084    1517    1501    1519
CTRIA6       702       1    1796    1092    1795    1520    1521    1812
CTRIA6       703       1     946    1796     972    1522    1813     956
CTRIA6       704       1    1796     981    1092    1523    1524    1520
CTRIA6       705       1    1796     946     981    1522    1185    1523
CTRIA6       706       1     980    1092     981    1525    1524    1201
CTRIA6       707       1    1093     980     979    1526    1210    1527
CTRIA6       708       1    1092    1094    1795    1528    1529    1521
CTRIA6       709       1    1093    1092     980    1530    1525    1526
CTRIA6       710       1    1093    1094    1092    1531    1528    1530
CTRIA6       711       1    1090    1093     979    1532    1527    1508
CTRIA6       712       1    1094    1794    1795    1533    1814    1529
CTRIA6       713       1    1090    1095    1093    1534    1535    1532
CTRIA6       714       1    1095    1089    1091    1536    1518    1537
CTRIA6       715       1    1095    1090    1089    1534    1511    1536
CTRIA6       716       1    1095    1094    1093    1538    1531    1535
CTRIA6       717       1    1094    1091    1794    1539    1516    1533
CTRIA6       718       1    1094    1095    1091    1538    1537    1539
CTRIA6       719       1    1769    1015    1768    1540    1541    1774
CTRIA6       720       1    1015    1016    1014    1542    1336    1543
CTRIA6       721       1    1016    1769    1770    1544    1775    1338
CTRIA6       722       1    1016    1015    1769    1542    1540    1544
CTRIA6       723       1    1111    1113    1110    1545    1546    1547
CTRIA6       724       1    1102    1111    1101    1548    1549    1550
CTRIA6       725       1    1113    1102    1103    1551    1552    1553
CTRIA6       726       1    1113    1111    1102    1545    1548    1551
CTRIA6       727       1    1112    1103    1104    1554    1555    1556
CTRIA6       728       1    1110    1112    1109    1557    1558    1559
CTRIA6       729       1    1112    1113    1103    1560    1553    1554
CTRIA6       730       1    1112    1110    1113    1557    1546    1560
CTRIA6       731       1    1109    1115    1108    1561    1562    1563
CTRIA6       732       1    1109    1112    1115    1558    1564    1561
CTRIA6       733       1    1114    1104    1105    1565    1566    1567
CTRIA6       734       1    1112    1114    1115    1568    1569    1564
CTRIA6       735       1    1112    1104    1114    1556    1565    1568
CTRIA6       736       1     974    1107    1116    1570    1571    1572
CTRIA6       737       1     974     973    1107    1178    1573    1570
CTRIA6       738       1    1116    1115    1117    1574    1575    1576
CTRIA6       739       1    1108    1116    1107    1577    1571    1578
CTRIA6       740       1    1108    1115    1116    1562    1574    1577
CTRIA6       741       1    1114    1117    1115    1579    1575    1569
CTRIA6       742       1    1117    1105    1106    1580    1581    1582
CTRIA6       743       1    1117    1114    1105    1579    1567    1580
CTRIA6       744       1     975    1106     976    1583    1584    1174
CTRIA6       745       1    1116     975     974    1585    1183    1572
CTRIA6       746       1     975    1117    1106    1586    1582    1583
CTRIA6       747       1     975    1116    1117    1585    1576    1586
CTRIA6       748       1    1099    1125    1123    1587    1588    1589
CTRIA6       749       1    1099    1100    1125    1590    1591    1587
CTRIA6       750       1    1124    1101    1111    1592    1549    1593
CTRIA6       751       1    1100    1124    1125    1594    1595    1591
CTRIA6       752       1    1100    1101    1124    1596    1592    1594
CTRIA6       753       1    1118    1111    1110    1597    1547    1598
CTRIA6       754       1    1118    1124    1111    1599    1593    1597
CTRIA6       755       1    1123    1119    1120    1600    1601    1602
CTRIA6       756       1    1123    1125    1119    1588    1603    1600
CTRIA6       757       1    1119    1124    1118    1604    1599    1605
CTRIA6       758       1    1119    1125    1124    1603    1595    1604
CTRIA6       759       1    1766    1122    1765    1606    1607    1776
CTRIA6       760       1    1126    1123    1120    1608    1602    1609
CTRIA6       761       1    1123    1098    1099    1610    1611    1589
CTRIA6       762       1    1098    1126    1097    1612    1613    1614
CTRIA6       763       1    1098    1123    1126    1610    1608    1612
CTRIA6       764       1    1122    1096    1121    1615    1616    1617
CTRIA6       765       1    1122    1766    1096    1606    1618    1615
CTRIA6       766       1    1121    1126    1120    1619    1609    1620
CTRIA6       767       1    1097    1121    1096    1621    1616    1622
CTRIA6       768       1    1097    1126    1121    1613    1619    1621
CTRIA6       769       1    1751    1127     973    1623    1624    1171
CTRIA6       770       1    1751    1752    1127    1760    1625    1623
CTRIA6       771       1    1131    1128    1129    1626    1627    1628
CTRIA6       772       1    1127    1107     973    1629    1573    1624
CTRIA6       773       1    1132    1127    1128    1630    1631    1632
CTRIA6       774       1    1132    1107    1127    1633    1629    1630
CTRIA6       775       1    1132    1108    1107    1634    1578    1633
CTRIA6       776       1    1131    1132    1128    1635    1632    1626
CTRIA6       777       1    1131    1108    1132    1636    1634    1635
CTRIA6       778       1    1131    1109    1108    1637    1563    1636
CTRIA6       779       1    1133    1129    1130    1638    1639    1640
CTRIA6       780       1    1133    1131    1129    1641    1628    1638
CTRIA6       781       1    1133    1134    1131    1642    1643    1641
CTRIA6       782       1    1134    1109    1131    1644    1637    1643
CTRIA6       783       1    1110    1134    1118    1645    1646    1598
CTRIA6       784       1    1110    1109    1134    1559    1644    1645
CTRIA6       785       1    1133    1118    1134    1647    1646    1642
CTRIA6       786       1    1133    1119    1118    1648    1605    1647
CTRIA6       787       1    1119    1130    1120    1649    1650    1601
CTRIA6       788       1    1119    1133    1130    1648    1640    1649
CTRIA6       789       1    1752    1128    1127    1651    1631    1625
CTRIA6       790       1    1129    1136    1130    1652    1653    1639
CTRIA6       791       1    1753    1128    1752    1654    1651    1761
CTRIA6       792       1    1753    1135    1128    1655    1656    1654
CTRIA6       793       1    1129    1135    1136    1657    1658    1652
CTRIA6       794       1    1129    1128    1135    1627    1656    1657
CTRIA6       795       1    1120    1137    1121    1659    1660    1620
CTRIA6       796       1    1137    1130    1136    1661    1653    1662
CTRIA6       797       1    1137    1120    1130    1659    1650    1661
CTRIA6       798       1    1121    1139    1122    1663    1664    1617
CTRIA6       799       1    1137    1139    1121    1665    1663    1660
CTRIA6       800       1    1138    1136    1135    1666    1658    1667
CTRIA6       801       1    1137    1138    1139    1668    1669    1665
CTRIA6       802       1    1137    1136    1138    1662    1666    1668
CTRIA6       803       1    1754    1135    1753    1670    1655    1762
CTRIA6       804       1    1140    1765    1122    1671    1607    1672
CTRIA6       805       1    1815    1140    1755    1673    1674    1763
CTRIA6       806       1    1815    1765    1140    1777    1671    1673
CTRIA6       807       1    1139    1140    1122    1675    1672    1664
CTRIA6       808       1    1141    1754    1755    1676    1764    1677
CTRIA6       809       1    1754    1138    1135    1678    1667    1670
CTRIA6       810       1    1754    1141    1138    1676    1679    1678
CTRIA6       811       1    1141    1139    1138    1680    1669    1679
CTRIA6       812       1    1140    1141    1755    1681    1677    1674
CTRIA6       813       1    1140    1139    1141    1675    1680    1681
CTRIA6       814       1    1013    1143    1014    1682    1683    1334
CTRIA6       815       1    1013    1142    1143    1684    1685    1682
CTRIA6       816       1    1099    1142    1100    1686    1687    1590
CTRIA6       817       1    1099    1143    1142    1688    1685    1686
CTRIA6       818       1    1096    1144    1097    1689    1690    1622
CTRIA6       819       1    1767    1096    1766    1691    1618    1778
CTRIA6       820       1    1144    1767    1768    1692    1779    1693
CTRIA6       821       1    1144    1096    1767    1689    1691    1692
CTRIA6       822       1    1014    1146    1015    1694    1695    1543
CTRIA6       823       1    1143    1146    1014    1696    1694    1683
CTRIA6       824       1    1143    1145    1146    1697    1698    1696
CTRIA6       825       1    1098    1143    1099    1699    1688    1611
CTRIA6       826       1    1098    1145    1143    1700    1697    1699
CTRIA6       827       1    1097    1145    1098    1701    1700    1614
CTRIA6       828       1    1144    1145    1097    1702    1701    1690
CTRIA6       829       1    1015    1144    1768    1703    1693    1541
CTRIA6       830       1    1144    1146    1145    1704    1698    1702
CTRIA6       831       1    1144    1015    1146    1703    1695    1704
CTRIA6       832       1    1102    1149    1148    1705    1706    1707
CTRIA6       833       1    1102    1101    1149    1550    1708    1705
CTRIA6       834       1    1009    1147    1150    1709    1710    1711
CTRIA6       835       1    1009    1008    1147    1363    1712    1709
CTRIA6       836       1    1150    1148    1149    1713    1706    1714
CTRIA6       837       1    1150    1147    1148    1710    1715    1713
CTRIA6       838       1    1151    1150    1149    1716    1714    1717
CTRIA6       839       1    1150    1010    1009    1718    1419    1711
CTRIA6       840       1    1010    1151    1011    1719    1720    1300
CTRIA6       841       1    1010    1150    1151    1718    1716    1719
CTRIA6       842       1    1100    1153    1101    1721    1722    1596
CTRIA6       843       1    1012    1142    1013    1723    1684    1305
CTRIA6       844       1    1152    1142    1012    1724    1723    1725
CTRIA6       845       1    1142    1153    1100    1726    1721    1687
CTRIA6       846       1    1142    1152    1153    1724    1727    1726
CTRIA6       847       1    1011    1152    1012    1728    1725    1308
CTRIA6       848       1    1011    1151    1152    1720    1729    1728
CTRIA6       849       1    1153    1149    1101    1730    1708    1722
CTRIA6       850       1    1151    1153    1152    1731    1727    1729
CTRIA6       851       1    1151    1149    1153    1717    1730    1731
CTRIA6       852       1    1148    1103    1102    1732    1552    1707
CTRIA6       853       1    1147    1008    1007    1712    1370    1733
CTRIA6       854       1    1154    1147    1007    1734    1733    1735
CTRIA6       855       1    1148    1154    1103    1736    1737    1732
CTRIA6       856       1    1148    1147    1154    1715    1734    1736
CTRIA6       857       1    1155    1059    1006    1382    1386    1738
CTRIA6       858       1    1155    1154    1007    1739    1735    1383
CTRIA6       859       1    1154    1104    1103    1740    1555    1737
CTRIA6       860       1    1154    1155    1104    1739    1741    1740
CTRIA6       861       1    1155    1105    1104    1742    1566    1741
CTRIA6       862       1    1105    1006    1005    1743    1361    1744
CTRIA6       863       1    1105    1155    1006    1742    1738    1743
CTRIA6       864       1     976    1004     977    1745    1348    1193
CTRIA6       865       1    1106    1004     976    1746    1745    1584
CTRIA6       866       1    1005    1106    1105    1747    1581    1744
CTRIA6       867       1    1005    1004    1106    1358    1746    1747
$*
$* PROPERTY CARDS
$*
$*  Property: PSHELL1
PSHELL         1       1 11.0000      -11.000000        0.833333  0.0000
$*
$* MATERIAL CARDS
$*
$*  Material: ABS::dub_fem1::[1]
MAT1           12.0000+6        0.4000001.0500-67.0000-5
$*
$* LOAD AND CONSTRAINT CARDS
$*
$*  Constraint: Fixed(1)
SPC            1     970  123456  0.0000
$*  Constraint: UserDefined(1)
SPC            2     904     234  0.0000
SPC            2     905     234  0.0000
SPC            2     906     234  0.0000
SPC            2     907     234  0.0000
SPC            2     908     234  0.0000
SPC            2     909     234  0.0000
SPC            2     910     234  0.0000
SPC            2     911     234  0.0000
SPC            2     912     234  0.0000
SPC            2     913     234  0.0000
SPC            2     914     234  0.0000
SPC            2     915     234  0.0000
SPC            2     916     234  0.0000
SPC            2     917     234  0.0000
SPC            2     918     234  0.0000
SPC            2     919     234  0.0000
SPC            2     920     234  0.0000
SPC            2     921     234  0.0000
SPC            2     922     234  0.0000
SPC            2     923     234  0.0000
SPC            2     924     234  0.0000
SPC            2     925     234  0.0000
SPC            2     926     234  0.0000
SPC            2     927     234  0.0000
SPC            2     928     234  0.0000
SPC            2     929     234  0.0000
SPC            2     930     234  0.0000
SPC            2     931     234  0.0000
SPC            2     932     234  0.0000
SPC            2     933     234  0.0000
SPC            2     934     234  0.0000
SPC            2     935     234  0.0000
SPC            2     936     234  0.0000
SPC            2     937     234  0.0000
SPC            2     938     234  0.0000
SPC            2     970     234  0.0000
SPC            2     972     234  0.0000
SPC            2    1780     234  0.0000
SPC            2    1781     234  0.0000
SPC            2    1782     234  0.0000
SPC            2    1783     234  0.0000
SPC            2    1784     234  0.0000
SPC            2    1785     234  0.0000
SPC            2    1786     234  0.0000
SPC            2    1787     234  0.0000
SPC            2    1788     234  0.0000
SPC            2    1789     234  0.0000
SPC            2    1790     234  0.0000
SPC            2    1791     234  0.0000
SPC            2    1792     234  0.0000
SPC            2    1793     234  0.0000
SPC            2    1794     234  0.0000
SPC            2    1795     234  0.0000
SPC            2    1796     234  0.0000
SPC            2    1797     234  0.0000
SPC            2    1798     234  0.0000
SPC            2    1799     234  0.0000
SPC            2    1800     234  0.0000
SPC            2    1801     234  0.0000
SPC            2    1802     234  0.0000
SPC            2    1803     234  0.0000
SPC            2    1804     234  0.0000
SPC            2    1805     234  0.0000
SPC            2    1806     234  0.0000
SPC            2    1807     234  0.0000
SPC            2    1808     234  0.0000
SPC            2    1809     234  0.0000
SPC            2    1810     234  0.0000
SPC            2    1811     234  0.0000
SPC            2    1812     234  0.0000
SPC            2    1813     234  0.0000
SPC            2    1814     234  0.0000
SPC            2    1816     234  0.0000
$*  Constraint: UserDefined(2)
SPC            3     859     135  0.0000
SPC            3     860     135  0.0000
SPC            3     861     135  0.0000
SPC            3     967     135  0.0000
SPC            3     968     135  0.0000
SPCADD       100       1       2       3
$*  Load: Force(1)
FORCE          4     887       0 37.0370  0.00001.000000  0.0000
FORCE          4     888       0 37.0370  0.00001.000000  0.0000
FORCE          4     889       0 37.0370  0.00001.000000  0.0000
FORCE          4     890       0 37.0370  0.00001.000000  0.0000
FORCE          4     891       0 37.0370  0.00001.000000  0.0000
FORCE          4     892       0 37.0370  0.00001.000000  0.0000
FORCE          4     893       0 37.0370  0.00001.000000  0.0000
FORCE          4     894       0 37.0370  0.00001.000000  0.0000
FORCE          4     895       0 74.0741  0.00001.000000  0.0000
FORCE          4     896       0 74.0741  0.00001.000000  0.0000
FORCE          4     897       0 74.0741  0.00001.000000  0.0000
FORCE          4     898       0 74.0741  0.00001.000000  0.0000
FORCE          4     899       0 74.0741  0.00001.000000  0.0000
FORCE          4     900       0 74.0741  0.00001.000000  0.0000
FORCE          4     901       0 74.0741  0.00001.000000  0.0000
FORCE          4     902       0 74.0741  0.00001.000000  0.0000
FORCE          4     903       0 74.0741  0.00001.000000  0.0000
FORCE          4     967       0 18.5185  0.00001.000000  0.0000
FORCE          4     969       0 18.5185  0.00001.000000  0.0000
ENDDATA 01639b4b
