$*$$$$$$$$$$$$$$$$$$$$$$$$$$$$$$$$$$$$$$$$$$$$$$$$$$$$$$$$$$$$$$$$$
$*
$*                    Simcenter v12.0.1.7 Translator
$*                    for NX Nastran version 12.1
$*
$*             FEM FILE: C:\work\Dropbox\ITBA\Deform&Fractura\monografia\modelo\cad\testigo_catpart_fem1.fem
$*             SIM FILE: C:\work\Dropbox\ITBA\Deform&Fractura\monografia\modelo\cad\testigo_catpart_sim1.sim
$*        ANALYSIS TYPE: Structural
$*        SOLUTION NAME: Solution 1
$*        SOLUTION TYPE: SOL 101 Linear Statics - Global Constraints
$*
$*    SOLVER INPUT FILE: testigo_catpart_sim1-solution_1.dat
$*        CREATION DATE:  8-Apr-2020
$*        CREATION TIME: 15:17:39
$*             HOSTNAME: WHITTILEAKS
$*      NASTRAN LICENSE: Desktop Bundle
$*
$*                UNITS: mm (milli-newton)
$*                      ... LENGTH : mm
$*                      ... TIME   : sec
$*                      ... MASS   : kilogram (kg)
$*                      ... TEMPERATURE : deg Celsius
$*                      ... FORCE  : milli-newton
$*                      ... THERMAL ENERGY : mN-mm (micro-joule)
$*
$* IMPORTANT NOTE:
$*     This banner was generated by Simcenter and altering this 
$*     information may compromise the pre and post processing of results
$*
$*$$$$$$$$$$$$$$$$$$$$$$$$$$$$$$$$$$$$$$$$$$$$$$$$$$$$$$$$$$$$$$$$$
$*
$*$$$$$$$$$$$$$$$$$$$$$$$$$$$$$$$$$$$
$*
$* FILE MANAGEMENT
$*
$*$$$$$$$$$$$$$$$$$$$$$$$$$$$$$$$$$$$
$*
$*
$*$$$$$$$$$$$$$$$$$$$$$$$$$$$$$$$$$$$
$*
$* EXECUTIVE CONTROL
$*
$*$$$$$$$$$$$$$$$$$$$$$$$$$$$$$$$$$$$
$*
ID,NASTRAN,testigo_catpart_sim1-solution_1
SOL 101
CEND
$*
$*$$$$$$$$$$$$$$$$$$$$$$$$$$$$$$$$$$$
$*
$* CASE CONTROL
$*
$*$$$$$$$$$$$$$$$$$$$$$$$$$$$$$$$$$$$
$*
ECHO = NONE
SPC = 1
OUTPUT
DISPLACEMENT(PLOT,REAL) = ALL
SPCFORCES(PLOT,REAL) = ALL
STRESS(PLOT,REAL,VONMISES,CENTER) = ALL
$*  Step: Subcase - Static Loads 1
SUBCASE 1
  LABEL = Subcase - Static Loads 1
  LOAD = 2
$*
$*$$$$$$$$$$$$$$$$$$$$$$$$$$$$$$$$$$$
$*
$* BULK DATA
$*
$*$$$$$$$$$$$$$$$$$$$$$$$$$$$$$$$$$$$
$*
BEGIN BULK
$*
$* PARAM CARDS
$*
PARAM      K6ROT100.0000
PARAM     OIBULK     YES
PARAM    OMACHPR     YES
PARAM       POST      -2
PARAM    POSTEXT     YES
PARAM    UNITSYS   MN-MM
$*
$* GRID CARDS
$*
GRID*                  1               02.0000000000E+019.4803998060E+01+
*       -3.889169971E+01               0
GRID*                  2               02.0000000000E+018.9630196539E+01+
*       -3.586133664E+01               0
GRID*                  3               02.0000000000E+018.4513826296E+01+
*       -3.293464629E+01               0
GRID*                  4               02.0000000000E+017.9477668974E+01+
*       -3.016297552E+01               0
GRID*                  5               02.0000000000E+017.4431360111E+01+
*       -2.759940071E+01               0
GRID*                  6               02.0000000000E+016.9202485299E+01+
*       -2.514577740E+01               0
GRID*                  7               02.0000000000E+016.3829796994E+01+
*       -2.262354932E+01               0
GRID*                  8               02.0000000000E+015.8491412449E+01+
*       -2.008926484E+01               0
GRID*                  9               02.0000000000E+015.3174349179E+01+
*       -1.779261712E+01               0
GRID*                 10               02.0000000000E+014.6790152622E+01+
*       -1.615924390E+01               0
GRID*                 11               02.0000000000E+014.1334014350E+01+
*       -1.276019905E+01               0
GRID*                 12               02.0000000000E+013.7667918303E+01+
*       -1.097034399E+01               0
GRID*                 13               02.0000000000E+013.4950704713E+01+
*       -9.753592140E+00               0
GRID*                 14               02.0000000000E+013.3170601714E+01+
*       -8.627374977E+00               0
GRID*                 15               02.0000000000E+013.0927307748E+01+
*       -6.625069551E+00               0
GRID*                 16               02.0000000000E+012.9461364346E+01+
*       -6.159123837E+00               0
GRID*                 17               02.0000000000E+012.8302686548E+01+
*       -5.588902079E+00               0
GRID*                 18               02.0000000000E+012.7380360961E+01+
*       -5.096998626E+00               0
GRID*                 19               02.0000000000E+01-2.797608399E+01+
*       5.0094732290E+00               0
GRID*                 20               02.0000000000E+01-2.919857542E+01+
*       5.4718758349E+00               0
GRID*                 21               02.0000000000E+01-3.047477993E+01+
*       5.9721615894E+00               0
GRID*                 22               02.0000000000E+01-3.195335035E+01+
*       6.5531467916E+00               0
GRID*                 23               02.0000000000E+01-3.417957384E+01+
*       6.9333893730E+00               0
GRID*                 24               02.0000000000E+01-3.701168824E+01+
*       8.1048038873E+00               0
GRID*                 25               02.0000000000E+01-4.026916771E+01+
*       9.2463733847E+00               0
GRID*                 26               02.0000000000E+01-4.502700978E+01+
*       1.0264854828E+01               0
GRID*                 27               02.0000000000E+01-4.993656828E+01+
*       1.3569560225E+01               0
GRID*                 28               02.0000000000E+01-5.417749345E+01+
*       1.6420408403E+01               0
GRID*                 29               02.0000000000E+01-5.870218834E+01+
*       1.8894566171E+01               0
GRID*                 30               02.0000000000E+01-6.358473534E+01+
*       2.1464929691E+01               0
GRID*                 31               02.0000000000E+01-6.868369847E+01+
*       2.4148144735E+01               0
GRID*                 32               02.0000000000E+01-7.389562297E+01+
*       2.6934786954E+01               0
GRID*                 33               02.0000000000E+01-7.914917240E+01+
*       2.9804998863E+01               0
GRID*                 34               02.0000000000E+01-8.440152039E+01+
*       3.2735826951E+01               0
GRID*                 35               02.0000000000E+01-8.963246732E+01+
*       3.5730253244E+01               0
GRID*                 36               02.0000000000E+01-9.483239405E+01+
*       3.8811832418E+01               0
GRID*                 37               02.0000000000E+012.3161106556E+01+
*       7.5389687648E+00               0
GRID*                 38               02.0000000000E+012.4263180586E+01+
*       8.3043753548E+00               0
GRID*                 39               02.0000000000E+012.5644255356E+01+
*       9.2618395028E+00               0
GRID*                 40               02.0000000000E+012.7361425142E+01+
*       1.0440636236E+01               0
GRID*                 41               02.0000000000E+012.9437190185E+01+
*       1.1661826926E+01               0
GRID*                 42               02.0000000000E+013.2347853321E+01+
*       1.2766650748E+01               0
GRID*                 43               02.0000000000E+013.5246393943E+01+
*       1.5283736273E+01               0
GRID*                 44               02.0000000000E+013.8962560323E+01+
*       1.8164067910E+01               0
GRID*                 45               02.0000000000E+014.3811546632E+01+
*       2.1554681334E+01               0
GRID*                 46               02.0000000000E+014.9020185403E+01+
*       2.5495593180E+01               0
GRID*                 47               02.0000000000E+015.4764433441E+01+
*       3.0025475803E+01               0
GRID*                 48               02.0000000000E+016.0968692192E+01+
*       3.2412716968E+01               0
GRID*                 49               02.0000000000E+016.5898781187E+01+
*       3.5322796178E+01               0
GRID*                 50               02.0000000000E+017.0733351183E+01+
*       3.8539981677E+01               0
GRID*                 51               02.0000000000E+017.5547588505E+01+
*       4.1928050617E+01               0
GRID*                 52               02.0000000000E+018.0349189231E+01+
*       4.5422568101E+01               0
GRID*                 53               02.0000000000E+018.5160021629E+01+
*       4.8990703331E+01               0
GRID*                 54               02.0000000000E+019.0012136186E+01+
*       5.2611749806E+01               0
GRID*                 55               02.0000000000E+019.4942815001E+01+
*       5.6278363912E+01               0
GRID*                 56               02.0000000000E+013.1242353515E+01+
*       1.0107058418E+01               0
GRID*                 57               02.0000000000E+013.0754890991E+01+
*       8.2552053502E+00               0
GRID*                 58               02.0000000000E+013.0501095397E+01+
*       6.5928977310E+00               0
GRID*                 59               02.0000000000E+013.0351616763E+01+
*       4.8792597874E+00               0
GRID*                 60               02.0000000000E+012.9706257993E+01+
*       3.8508769508E+00               0
GRID*                 61               02.0000000000E+012.9664897468E+01+
*       2.9855773120E+00               0
GRID*                 62               02.0000000000E+012.8956913951E+01+
*       5.8916916299E+00               0
GRID*                 63               02.0000000000E+012.7878083453E+01+
*       4.9128909775E+00               0
GRID*                 64               02.0000000000E+012.9169316220E+01+
*       7.5246712570E+00               0
GRID*                 65               02.0000000000E+012.8034789015E+01+
*       6.8259818969E+00               0
GRID*                 66               02.0000000000E+012.6925709098E+01+
*       6.6338538947E+00               0
GRID*                 67               02.0000000000E+012.5901880326E+01+
*       6.0478945662E+00               0
GRID*                 68               02.0000000000E+012.4236628991E+01+
*       6.9570725366E+00               0
GRID*                 69               02.0000000000E+012.4995864763E+01+
*       6.3319744944E+00               0
GRID*                 70               02.0000000000E+012.5619196972E+01+
*       7.3892644833E+00               0
GRID*                 71               02.0000000000E+012.9234119070E+01+
*       9.3532801169E+00               0
GRID*                 72               02.0000000000E+012.7422838831E+01+
*       8.2036530735E+00               0
GRID*                 73               02.0000000000E+012.6844339655E+01+
*       5.5205841112E+00               0
GRID*                 74               02.0000000000E+012.7707464880E+01+
*       5.9614804966E+00               0
GRID*                 75               02.0000000000E+012.8994869626E+01+
*       3.5582793462E+00               0
GRID*                 76               02.0000000000E+012.9033264717E+01+
*       4.5044394465E+00               0
GRID*                 77               02.0000000000E+012.8348754258E+01+
*       4.0389013715E+00               0
GRID*                 78               02.0000000000E+012.9520247853E+01+
*       -3.067624687E+00               0
GRID*                 79               02.0000000000E+012.9951854938E+01+
*       -3.929957688E+00               0
GRID*                 80               02.0000000000E+013.0436650788E+01+
*       -5.128375240E+00               0
GRID*                 81               02.0000000000E+012.8225475762E+01+
*       -4.474194339E+00               0
GRID*                 82               02.0000000000E+012.8981294220E+01+
*       -3.749392184E+00               0
GRID*                 83               02.0000000000E+012.9222103612E+01+
*       -4.827072983E+00               0
GRID*                 84               02.0000000000E+013.4509151931E+01+
*       -7.373485590E+00               0
GRID*                 85               02.0000000000E+013.3709164418E+01+
*       -5.421215432E+00               0
GRID*                 86               02.0000000000E+013.2694141777E+01+
*       -3.801340876E+00               0
GRID*                 87               02.0000000000E+013.1639881197E+01+
*       -2.604991916E+00               0
GRID*                 88               02.0000000000E+013.0669363839E+01+
*       -1.694832079E+00               0
GRID*                 89               02.0000000000E+013.0840788145E+01+
*       -5.442769579E-01               0
GRID*                 90               02.0000000000E+016.8591570624E+01+
*       -1.929267173E+01               0
GRID*                 91               02.0000000000E+016.8057713304E+01+
*       -1.334102350E+01               0
GRID*                 92               02.0000000000E+016.7576237417E+01+
*       -7.298558378E+00               0
GRID*                 93               02.0000000000E+016.7145579250E+01+
*       -1.188564475E+00               0
GRID*                 94               02.0000000000E+016.6763078392E+01+
*       4.9637852358E+00               0
GRID*                 95               02.0000000000E+016.6419487545E+01+
*       1.1147929240E+01               0
GRID*                 96               02.0000000000E+016.6127178997E+01+
*       1.7344163917E+01               0
GRID*                 97               02.0000000000E+016.5932134472E+01+
*       2.3520715601E+01               0
GRID*                 98               02.0000000000E+016.5892861750E+01+
*       2.9567006399E+01               0
GRID*                 99               02.0000000000E+017.2299522695E+01+
*       2.1938011611E+00               0
GRID*                100               02.0000000000E+017.7852524426E+01+
*       -6.035483443E-01               0
GRID*                101               02.0000000000E+018.3427997462E+01+
*       -3.434409883E+00               0
GRID*                102               02.0000000000E+018.8999033326E+01+
*       -6.289530938E+00               0
GRID*                103               02.0000000000E+019.4531215950E+01+
*       -9.149322212E+00               0
GRID*                104               02.0000000000E+018.4363667028E+01+
*       -2.722632546E+01               0
GRID*                105               02.0000000000E+018.9450515748E+01+
*       -2.420677132E+01               0
GRID*                106               02.0000000000E+019.4677849270E+01+
*       -2.112467787E+01               0
GRID*                107               02.0000000000E+019.4782404261E+01+
*       -3.298190097E+01               0
GRID*                108               02.0000000000E+019.4742091898E+01+
*       -2.706364633E+01               0
GRID*                109               02.0000000000E+018.9578928554E+01+
*       -3.004631500E+01               0
GRID*                110               02.0000000000E+018.4155736365E+01+
*       -2.141398220E+01               0
GRID*                111               02.0000000000E+018.3926722131E+01+
*       -1.550289832E+01               0
GRID*                112               02.0000000000E+018.3692258480E+01+
*       -9.506435767E+00               0
GRID*                113               02.0000000000E+019.4610361964E+01+
*       -1.515233761E+01               0
GRID*                114               02.0000000000E+018.9178676228E+01+
*       -1.231870122E+01               0
GRID*                115               02.0000000000E+018.9334837989E+01+
*       -1.828835243E+01               0
GRID*                116               02.0000000000E+017.2677072130E+01+
*       -3.941064864E+00               0
GRID*                117               02.0000000000E+017.9188694502E+01+
*       -2.450367190E+01               0
GRID*                118               02.0000000000E+017.3952440943E+01+
*       -2.187751518E+01               0
GRID*                119               02.0000000000E+017.8865080755E+01+
*       -1.867899798E+01               0
GRID*                120               02.0000000000E+017.8196011553E+01+
*       -6.709969344E+00               0
GRID*                121               02.0000000000E+017.3079400515E+01+
*       -1.001035278E+01               0
GRID*                122               02.0000000000E+017.8540438904E+01+
*       -1.273780149E+01               0
GRID*                123               02.0000000000E+017.3520478808E+01+
*       -1.599310112E+01               0
GRID*                124               02.0000000000E+017.0911130745E+01+
*       3.2785116782E+01               0
GRID*                125               02.0000000000E+017.1081083836E+01+
*       2.6856842770E+01               0
GRID*                126               02.0000000000E+017.1313148041E+01+
*       2.0769764535E+01               0
GRID*                127               02.0000000000E+017.1616040649E+01+
*       1.4590605283E+01               0
GRID*                128               02.0000000000E+017.1958367748E+01+
*       8.3829653254E+00               0
GRID*                129               02.0000000000E+017.7531720379E+01+
*       5.5893349644E+00               0
GRID*                130               02.0000000000E+018.3164419253E+01+
*       2.7403281649E+00               0
GRID*                131               02.0000000000E+018.8824757256E+01+
*       -1.707683101E-01               0
GRID*                132               02.0000000000E+019.4451526156E+01+
*       -3.101811372E+00               0
GRID*                133               02.0000000000E+017.7166057739E+01+
*       1.1838452370E+01               0
GRID*                134               02.0000000000E+018.2824931248E+01+
*       9.0296317421E+00               0
GRID*                135               02.0000000000E+018.8588862863E+01+
*       6.0819270942E+00               0
GRID*                136               02.0000000000E+019.4347493658E+01+
*       3.0201560991E+00               0
GRID*                137               02.0000000000E+017.5803551177E+01+
*       3.6140031209E+01               0
GRID*                138               02.0000000000E+017.6067034773E+01+
*       3.0249761628E+01               0
GRID*                139               02.0000000000E+017.6385144212E+01+
*       2.4228990774E+01               0
GRID*                140               02.0000000000E+017.6769025579E+01+
*       1.8079665461E+01               0
GRID*                141               02.0000000000E+018.0625728266E+01+
*       3.9597973947E+01               0
GRID*                142               02.0000000000E+018.0924280739E+01+
*       3.3719319133E+01               0
GRID*                143               02.0000000000E+018.1303073067E+01+
*       2.7756078299E+01               0
GRID*                144               02.0000000000E+018.1802269809E+01+
*       2.1658633669E+01               0
GRID*                145               02.0000000000E+018.2359752481E+01+
*       1.5388805013E+01               0
GRID*                146               02.0000000000E+018.5411421070E+01+
*       4.3124480744E+01               0
GRID*                147               02.0000000000E+018.5684811070E+01+
*       3.7239021718E+01               0
GRID*                148               02.0000000000E+018.6047276591E+01+
*       3.1321720919E+01               0
GRID*                149               02.0000000000E+018.6593050418E+01+
*       2.5343408756E+01               0
GRID*                150               02.0000000000E+018.7439781769E+01+
*       1.9133060426E+01               0
GRID*                151               02.0000000000E+018.8213102479E+01+
*       1.2581005542E+01               0
GRID*                152               02.0000000000E+019.4197294258E+01+
*       9.3461390991E+00               0
GRID*                153               02.0000000000E+019.3994837211E+01+
*       1.6561620484E+01               0
GRID*                154               02.0000000000E+019.1858816536E+01+
*       2.3150269280E+01               0
GRID*                155               02.0000000000E+019.6354304636E+01+
*       2.1754906815E+01               0
GRID*                156               02.0000000000E+019.0203554772E+01+
*       4.6701327221E+01               0
GRID*                157               02.0000000000E+019.0405335247E+01+
*       4.0788480133E+01               0
GRID*                158               02.0000000000E+019.0668813510E+01+
*       3.4874444135E+01               0
GRID*                159               02.0000000000E+019.1085778472E+01+
*       2.8983956363E+01               0
GRID*                160               02.0000000000E+019.5812303183E+01+
*       2.6710292008E+01               0
GRID*                161               02.0000000000E+019.5479576614E+01+
*       3.2493500067E+01               0
GRID*                162               02.0000000000E+019.5286733767E+01+
*       3.8420338346E+01               0
GRID*                163               02.0000000000E+019.5158144958E+01+
*       4.4371331692E+01               0
GRID*                164               02.0000000000E+019.5048872428E+01+
*       5.0324482249E+01               0
GRID*                165               02.0000000000E+013.8883230256E+01+
*       1.3452270915E+01               0
GRID*                166               02.0000000000E+014.0092005528E+01+
*       8.1421725301E+00               0
GRID*                167               02.0000000000E+014.0292752235E+01+
*       5.6035211273E+00               0
GRID*                168               02.0000000000E+014.0295769418E+01+
*       2.3565456381E+00               0
GRID*                169               02.0000000000E+014.1281187359E+01+
*       -9.643794792E-01               0
GRID*                170               02.0000000000E+014.1533439773E+01+
*       -4.697613249E+00               0
GRID*                171               02.0000000000E+014.0103019172E+01+
*       -8.410719929E+00               0
GRID*                172               02.0000000000E+013.0807298381E+01+
*       5.7469731475E-01               0
GRID*                173               02.0000000000E+013.1879467435E+01+
*       8.1246991491E-02               0
GRID*                174               02.0000000000E+013.3087416965E+01+
*       -5.332057190E-01               0
GRID*                175               02.0000000000E+013.4587761922E+01+
*       -1.163991793E+00               0
GRID*                176               02.0000000000E+013.6558997924E+01+
*       -1.798809015E+00               0
GRID*                177               02.0000000000E+013.8789178215E+01+
*       -2.814201616E+00               0
GRID*                178               02.0000000000E+013.3082892583E+01+
*       -2.105231628E+00               0
GRID*                179               02.0000000000E+013.1857550263E+01+
*       -1.228305676E+00               0
GRID*                180               02.0000000000E+013.6862480073E+01+
*       -7.919451104E+00               0
GRID*                181               02.0000000000E+013.8286999271E+01+
*       -5.528398816E+00               0
GRID*                182               02.0000000000E+013.4751911574E+01+
*       -3.383579943E+00               0
GRID*                183               02.0000000000E+013.6831525102E+01+
*       -3.818719355E+00               0
GRID*                184               02.0000000000E+013.5812476310E+01+
*       -5.570706514E+00               0
GRID*                185               02.0000000000E+013.2971240235E+01+
*       8.8198287789E-01               0
GRID*                186               02.0000000000E+013.4283265128E+01+
*       1.7774852897E+00               0
GRID*                187               02.0000000000E+013.5930015063E+01+
*       2.8727248891E+00               0
GRID*                188               02.0000000000E+013.7896244023E+01+
*       4.1510003850E+00               0
GRID*                189               02.0000000000E+013.5943670459E+01+
*       5.4955312807E-01               0
GRID*                190               02.0000000000E+013.4133284768E+01+
*       3.0028329711E-01               0
GRID*                191               02.0000000000E+013.7651626079E+01+
*       1.9585882376E+00               0
GRID*                192               02.0000000000E+013.8390051792E+01+
*       -1.401429464E-01               0
GRID*                193               02.0000000000E+013.5687839640E+01+
*       5.0717155328E+00               0
GRID*                194               02.0000000000E+013.5205495885E+01+
*       6.9900539713E+00               0
GRID*                195               02.0000000000E+013.5635177826E+01+
*       8.9698505318E+00               0
GRID*                196               02.0000000000E+013.5638714637E+01+
*       1.1725687311E+01               0
GRID*                197               02.0000000000E+013.8214792475E+01+
*       9.9641852349E+00               0
GRID*                198               02.0000000000E+013.7570388435E+01+
*       6.9762650387E+00               0
GRID*                199               02.0000000000E+013.1704521620E+01+
*       1.3367636173E+00               0
GRID*                200               02.0000000000E+013.2716224517E+01+
*       2.3556411624E+00               0
GRID*                201               02.0000000000E+013.4019237935E+01+
*       3.6466735631E+00               0
GRID*                202               02.0000000000E+013.3473378126E+01+
*       1.0006555036E+01               0
GRID*                203               02.0000000000E+013.3679313503E+01+
*       7.9544265722E+00               0
GRID*                204               02.0000000000E+013.2234342131E+01+
*       8.6862778318E+00               0
GRID*                205               02.0000000000E+013.2040067102E+01+
*       7.1836058132E+00               0
GRID*                206               02.0000000000E+013.3475255341E+01+
*       5.8054427011E+00               0
GRID*                207               02.0000000000E+013.0542376239E+01+
*       3.4395486347E+00               0
GRID*                208               02.0000000000E+013.1299901677E+01+
*       2.5249915782E+00               0
GRID*                209               02.0000000000E+013.0315941159E+01+
*       2.4855218360E+00               0
GRID*                210               02.0000000000E+013.0574726575E+01+
*       1.6161780905E+00               0
GRID*                211               02.0000000000E+013.2002117129E+01+
*       4.0415518274E+00               0
GRID*                212               02.0000000000E+013.1647895244E+01+
*       5.7114280012E+00               0
GRID*                213               02.0000000000E+015.1954678394E+01+
*       -1.168859032E+01               0
GRID*                214               02.0000000000E+015.7020449977E+01+
*       -8.045307944E+00               0
GRID*                215               02.0000000000E+016.2072518284E+01+
*       -4.593581600E+00               0
GRID*                216               02.0000000000E+016.3212747093E+01+
*       -1.670965578E+01               0
GRID*                217               02.0000000000E+015.7747576882E+01+
*       -1.418087382E+01               0
GRID*                218               02.0000000000E+016.2621523845E+01+
*       -1.069919532E+01               0
GRID*                219               02.0000000000E+014.3060612455E+01+
*       4.3708726258E+00               0
GRID*                220               02.0000000000E+014.6382085645E+01+
*       2.9553897688E+00               0
GRID*                221               02.0000000000E+015.0998691500E+01+
*       8.0686315820E-01               0
GRID*                222               02.0000000000E+015.6501514854E+01+
*       -1.878542678E+00               0
GRID*                223               02.0000000000E+014.5765346718E+01+
*       -2.035059827E+00               0
GRID*                224               02.0000000000E+015.1312338672E+01+
*       -5.241552520E+00               0
GRID*                225               02.0000000000E+014.5545357305E+01+
*       -8.689693020E+00               0
GRID*                226               02.0000000000E+014.3285363780E+01+
*       1.4133102508E+00               0
GRID*                227               02.0000000000E+016.0880195090E+01+
*       1.3886739440E+01               0
GRID*                228               02.0000000000E+015.5276765197E+01+
*       1.6580499785E+01               0
GRID*                229               02.0000000000E+014.9535273533E+01+
*       1.9120510271E+01               0
GRID*                230               02.0000000000E+016.0627480396E+01+
*       2.0116809418E+01               0
GRID*                231               02.0000000000E+015.4965360523E+01+
*       2.2937463876E+01               0
GRID*                232               02.0000000000E+016.0553984584E+01+
*       2.6426427120E+01               0
GRID*                233               02.0000000000E+016.1619139724E+01+
*       1.5389608662E+00               0
GRID*                234               02.0000000000E+016.1215579443E+01+
*       7.6927588486E+00               0
GRID*                235               02.0000000000E+015.5998994182E+01+
*       4.2191684035E+00               0
GRID*                236               02.0000000000E+015.5580696011E+01+
*       1.0369647457E+01               0
GRID*                237               02.0000000000E+015.0021126432E+01+
*       1.2979311901E+01               0
GRID*                238               02.0000000000E+014.4040504472E+01+
*       1.5101684434E+01               0
GRID*                239               02.0000000000E+015.0010687630E+01+
*       6.7824711663E+00               0
GRID*                240               02.0000000000E+014.5569094398E+01+
*       9.8477878808E+00               0
GRID*                241               02.0000000000E+014.2644212131E+01+
*       7.4468713811E+00               0
GRID*                242               02.0000000000E+014.1518186644E+01+
*       1.0577145148E+01               0
GRID*                243               02.0000000000E+014.5390954829E+01+
*       6.2554849350E+00               0
GRID*                244               02.0000000000E+013.1914772495E+01+
*       -5.310683635E+00               0
GRID*                245               02.0000000000E+013.2602021862E+01+
*       -6.955414653E+00               0
GRID*                246               02.0000000000E+013.0403533049E+01+
*       -2.862714135E+00               0
GRID*                247               02.0000000000E+013.1163138981E+01+
*       -3.932610637E+00               0
GRID*                248               02.0000000000E+01-6.660126016E+01+
*       1.4489402348E+02               0
GRID*                249               02.0000000000E+01-6.355993704E+01+
*       1.3981894576E+02               0
GRID*                250               02.0000000000E+01-6.062152007E+01+
*       1.3479887632E+02               0
GRID*                251               02.0000000000E+01-5.786751090E+01+
*       1.2983514789E+02               0
GRID*                252               02.0000000000E+01-5.544178283E+01+
*       1.2483980380E+02               0
GRID*                253               02.0000000000E+01-5.365407549E+01+
*       1.1869473991E+02               0
GRID*                254               02.0000000000E+01-4.974928530E+01+
*       1.1293258844E+02               0
GRID*                255               02.0000000000E+01-4.643086386E+01+
*       1.0770810806E+02               0
GRID*                256               02.0000000000E+01-4.336817421E+01+
*       1.0263622634E+02               0
GRID*                257               02.0000000000E+01-4.063101466E+01+
*       9.7709016554E+01               0
GRID*                258               02.0000000000E+01-3.857453450E+01+
*       9.2569620944E+01               0
GRID*                259               02.0000000000E+01-3.656645982E+01+
*       8.7037534319E+01               0
GRID*                260               02.0000000000E+01-3.399383464E+01+
*       8.1672739577E+01               0
GRID*                261               02.0000000000E+01-3.123068202E+01+
*       7.6540966905E+01               0
GRID*                262               02.0000000000E+01-2.841695118E+01+
*       7.1449146282E+01               0
GRID*                263               02.0000000000E+01-2.566350435E+01+
*       6.6370632274E+01               0
GRID*                264               02.0000000000E+01-2.317713766E+01+
*       6.1274258636E+01               0
GRID*                265               02.0000000000E+01-2.134861468E+01+
*       5.5026795086E+01               0
GRID*                266               02.0000000000E+01-1.757074188E+01+
*       4.9130073361E+01               0
GRID*                267               02.0000000000E+01-1.424449888E+01+
*       4.3705374513E+01               0
GRID*                268               02.0000000000E+01-1.103946209E+01+
*       3.8535518554E+01               0
GRID*                269               02.0000000000E+01-7.993921691E+00+
*       3.3598682354E+01               0
GRID*                270               02.0000000000E+01-5.127391985E+00+
*       2.8880306804E+01               0
GRID*                271               02.0000000000E+01-2.519307400E+00+
*       2.4386183075E+01               0
GRID*                272               02.0000000000E+01-4.075342941E-01+
*       1.9703248013E+01               0
GRID*                273               02.0000000000E+011.7616432308E+00+
*       1.4631055313E+01               0
GRID*                274               02.0000000000E+01-1.046558997E+01+
*       2.8565617237E+01               0
GRID*                275               02.0000000000E+01-1.277509655E+01+
*       2.3636330833E+01               0
GRID*                276               02.0000000000E+01-1.547394664E+01+
*       1.8350253857E+01               0
GRID*                277               02.0000000000E+01-1.663612905E+01+
*       1.2754796917E+01               0
GRID*                278               02.0000000000E+01-1.355480483E+01+
*       3.3186925783E+01               0
GRID*                279               02.0000000000E+01-1.585229872E+01+
*       2.8033099396E+01               0
GRID*                280               02.0000000000E+01-1.803926310E+01+
*       2.3251195933E+01               0
GRID*                281               02.0000000000E+01-2.016711554E+01+
*       1.9663625137E+01               0
GRID*                282               02.0000000000E+01-2.040915342E+01+
*       1.5775115502E+01               0
GRID*                283               02.0000000000E+01-2.129193683E+01+
*       1.1596848235E+01               0
GRID*                284               02.0000000000E+01-2.262260923E+01+
*       8.7081716729E+00               0
GRID*                285               02.0000000000E+01-2.364871631E+01+
*       7.3172764435E+00               0
GRID*                286               02.0000000000E+01-9.485468571E+01+
*       4.4687660109E+01               0
GRID*                287               02.0000000000E+01-8.968709472E+01+
*       4.1456388691E+01               0
GRID*                288               02.0000000000E+01-8.451045330E+01+
*       3.8300909757E+01               0
GRID*                289               02.0000000000E+01-7.934284136E+01+
*       3.5216827181E+01               0
GRID*                290               02.0000000000E+01-7.420327137E+01+
*       3.2206335939E+01               0
GRID*                291               02.0000000000E+01-6.911218615E+01+
*       2.9280092230E+01               0
GRID*                292               02.0000000000E+01-6.409564372E+01+
*       2.6442727184E+01               0
GRID*                293               02.0000000000E+01-5.919940793E+01+
*       2.3676749957E+01               0
GRID*                294               02.0000000000E+01-5.449617465E+01+
*       2.0943467259E+01               0
GRID*                295               02.0000000000E+01-5.000721755E+01+
*       1.8154343315E+01               0
GRID*                296               02.0000000000E+01-4.557814365E+01+
*       1.5318754619E+01               0
GRID*                297               02.0000000000E+01-4.127686822E+01+
*       1.2944478122E+01               0
GRID*                298               02.0000000000E+01-3.762552991E+01+
*       1.1164149851E+01               0
GRID*                299               02.0000000000E+01-3.469748619E+01+
*       9.6366243980E+00               0
GRID*                300               02.0000000000E+01-3.234412088E+01+
*       8.4073295853E+00               0
GRID*                301               02.0000000000E+01-3.058989823E+01+
*       7.4160362183E+00               0
GRID*                302               02.0000000000E+01-2.948213908E+01+
*       6.5727894351E+00               0
GRID*                303               02.0000000000E+01-2.829198345E+01+
*       6.2602607333E+00               0
GRID*                304               02.0000000000E+01-2.704351333E+01+
*       5.6871465821E+00               0
GRID*                305               02.0000000000E+01-9.484868343E+01+
*       5.0592526918E+01               0
GRID*                306               02.0000000000E+01-8.967974122E+01+
*       4.7231455370E+01               0
GRID*                307               02.0000000000E+01-8.451689493E+01+
*       4.3920126604E+01               0
GRID*                308               02.0000000000E+01-7.939284936E+01+
*       4.0672022083E+01               0
GRID*                309               02.0000000000E+01-7.433261739E+01+
*       3.7505843902E+01               0
GRID*                310               02.0000000000E+01-6.934989126E+01+
*       3.4443040638E+01               0
GRID*                311               02.0000000000E+01-6.443827057E+01+
*       3.1496820806E+01               0
GRID*                312               02.0000000000E+01-5.957484087E+01+
*       2.8636785843E+01               0
GRID*                313               02.0000000000E+01-5.477964843E+01+
*       2.5781672036E+01               0
GRID*                314               02.0000000000E+01-5.013398959E+01+
*       2.2869991839E+01               0
GRID*                315               02.0000000000E+01-4.569695217E+01+
*       1.9929822575E+01               0
GRID*                316               02.0000000000E+01-4.154083026E+01+
*       1.7128035532E+01               0
GRID*                317               02.0000000000E+01-3.785797725E+01+
*       1.4661391296E+01               0
GRID*                318               02.0000000000E+01-3.479123396E+01+
*       1.2553064515E+01               0
GRID*                319               02.0000000000E+01-3.232935021E+01+
*       1.0735230328E+01               0
GRID*                320               02.0000000000E+01-3.045190924E+01+
*       9.1952813855E+00               0
GRID*                321               02.0000000000E+01-2.885770172E+01+
*       7.8295051537E+00               0
GRID*                322               02.0000000000E+01-2.722154949E+01+
*       7.0833446430E+00               0
GRID*                323               02.0000000000E+01-2.598030920E+01+
*       6.3280442714E+00               0
GRID*                324               02.0000000000E+01-9.483116799E+01+
*       5.6547551243E+01               0
GRID*                325               02.0000000000E+01-8.962495598E+01+
*       5.3095311527E+01               0
GRID*                326               02.0000000000E+01-8.442391996E+01+
*       4.9641893603E+01               0
GRID*                327               02.0000000000E+01-7.929231832E+01+
*       4.6219797085E+01               0
GRID*                328               02.0000000000E+01-7.427071688E+01+
*       4.2874392566E+01               0
GRID*                329               02.0000000000E+01-6.937492137E+01+
*       3.9647955829E+01               0
GRID*                330               02.0000000000E+01-6.460264160E+01+
*       3.6581766858E+01               0
GRID*                331               02.0000000000E+01-5.986768544E+01+
*       3.3699935400E+01               0
GRID*                332               02.0000000000E+01-5.503928984E+01+
*       3.0874787411E+01               0
GRID*                333               02.0000000000E+01-5.020622834E+01+
*       2.7890549711E+01               0
GRID*                334               02.0000000000E+01-4.559058083E+01+
*       2.4755017330E+01               0
GRID*                335               02.0000000000E+01-4.132323393E+01+
*       2.1602557516E+01               0
GRID*                336               02.0000000000E+01-3.756615709E+01+
*       1.8569260932E+01               0
GRID*                337               02.0000000000E+01-3.443835873E+01+
*       1.5843942173E+01               0
GRID*                338               02.0000000000E+01-3.187396700E+01+
*       1.3457437241E+01               0
GRID*                339               02.0000000000E+01-2.989149854E+01+
*       1.1290354614E+01               0
GRID*                340               02.0000000000E+01-2.873451684E+01+
*       9.5632152213E+00               0
GRID*                341               02.0000000000E+01-2.728793450E+01+
*       8.6912911184E+00               0
GRID*                342               02.0000000000E+01-2.594689375E+01+
*       7.7497997840E+00               0
GRID*                343               02.0000000000E+01-2.480113526E+01+
*       6.8972811135E+00               0
GRID*                344               02.0000000000E+01-1.685543709E+01+
*       3.8051558496E+01               0
GRID*                345               02.0000000000E+01-2.037801649E+01+
*       4.3257480638E+01               0
GRID*                346               02.0000000000E+01-2.369181609E+01+
*       4.8640807411E+01               0
GRID*                347               02.0000000000E+01-2.712129596E+01+
*       5.3036836076E+01               0
GRID*                348               02.0000000000E+01-3.061310865E+01+
*       5.6821641327E+01               0
GRID*                349               02.0000000000E+01-3.402152257E+01+
*       6.1356445541E+01               0
GRID*                350               02.0000000000E+01-3.721206912E+01+
*       6.6599132836E+01               0
GRID*                351               02.0000000000E+01-3.999878223E+01+
*       7.1821953821E+01               0
GRID*                352               02.0000000000E+01-4.298843906E+01+
*       7.6846013522E+01               0
GRID*                353               02.0000000000E+01-4.647250410E+01+
*       8.2143897649E+01               0
GRID*                354               02.0000000000E+01-5.010347079E+01+
*       8.7476394000E+01               0
GRID*                355               02.0000000000E+01-5.376911474E+01+
*       9.2124529637E+01               0
GRID*                356               02.0000000000E+01-5.828740993E+01+
*       9.7073371228E+01               0
GRID*                357               02.0000000000E+01-5.995381382E+01+
*       1.0260493490E+02               0
GRID*                358               02.0000000000E+01-6.417817623E+01+
*       1.0625673729E+02               0
GRID*                359               02.0000000000E+01-6.706007630E+01+
*       1.1145238341E+02               0
GRID*                360               02.0000000000E+01-7.016997160E+01+
*       1.1571294054E+02               0
GRID*                361               02.0000000000E+01-7.344514925E+01+
*       1.1999757830E+02               0
GRID*                362               02.0000000000E+01-7.688238034E+01+
*       1.2434739119E+02               0
GRID*                363               02.0000000000E+01-8.064280900E+01+
*       1.2880998246E+02               0
GRID*                364               02.0000000000E+01-8.526590756E+01+
*       1.3376830156E+02               0
GRID*                365               02.0000000000E+01-8.805939001E+01+
*       1.3963118511E+02               0
GRID*                366               02.0000000000E+01-9.135314729E+01+
*       1.4462278184E+02               0
GRID*                367               02.0000000000E+01-8.493468534E+01+
*       1.4477130650E+02               0
GRID*                368               02.0000000000E+01-7.262904799E+01+
*       1.4486505426E+02               0
GRID*                369               02.0000000000E+01-7.873834937E+01+
*       1.4481285051E+02               0
GRID*                370               02.0000000000E+01-8.179779689E+01+
*       1.3951831328E+02               0
GRID*                371               02.0000000000E+01-7.552426258E+01+
*       1.3966074926E+02               0
GRID*                372               02.0000000000E+01-7.832758561E+01+
*       1.3431050355E+02               0
GRID*                373               02.0000000000E+01-6.948316259E+01+
*       1.3977557143E+02               0
GRID*                374               02.0000000000E+01-4.604123024E+01+
*       9.7825566509E+01               0
GRID*                375               02.0000000000E+01-5.168407085E+01+
*       9.7462804783E+01               0
GRID*                376               02.0000000000E+01-5.493546396E+01+
*       1.0240830273E+02               0
GRID*                377               02.0000000000E+01-4.914275434E+01+
*       1.0258517834E+02               0
GRID*                378               02.0000000000E+01-7.472739183E+01+
*       1.2945532938E+02               0
GRID*                379               02.0000000000E+01-7.134862494E+01+
*       1.2486742771E+02               0
GRID*                380               02.0000000000E+01-6.814196530E+01+
*       1.2046110804E+02               0
GRID*                381               02.0000000000E+01-6.496897157E+01+
*       1.1617568263E+02               0
GRID*                382               02.0000000000E+01-6.167691187E+01+
*       1.1172593395E+02               0
GRID*                383               02.0000000000E+01-5.816665732E+01+
*       1.0715509382E+02               0
GRID*                384               02.0000000000E+01-7.223131498E+01+
*       1.3462793927E+02               0
GRID*                385               02.0000000000E+01-6.341691798E+01+
*       1.2994792795E+02               0
GRID*                386               02.0000000000E+01-6.593073110E+01+
*       1.2520273774E+02               0
GRID*                387               02.0000000000E+01-6.900014595E+01+
*       1.2980664209E+02               0
GRID*                388               02.0000000000E+01-6.638214753E+01+
*       1.3478925152E+02               0
GRID*                389               02.0000000000E+01-6.300543183E+01+
*       1.2089100121E+02               0
GRID*                390               02.0000000000E+01-5.969479601E+01+
*       1.1686652096E+02               0
GRID*                391               02.0000000000E+01-5.591324061E+01+
*       1.1245448951E+02               0
GRID*                392               02.0000000000E+01-5.239278977E+01+
*       1.0753476226E+02               0
GRID*                393               02.0000000000E+01-5.858549754E+01+
*       1.2136108622E+02               0
GRID*                394               02.0000000000E+01-6.071176723E+01+
*       1.2533476727E+02               0
GRID*                395               02.0000000000E+01-2.620311414E+01+
*       5.7584048850E+01               0
GRID*                396               02.0000000000E+01-2.848561408E+01+
*       6.1638244781E+01               0
GRID*                397               02.0000000000E+01-4.332958777E+01+
*       9.3910700999E+01               0
GRID*                398               02.0000000000E+01-4.807296802E+01+
*       9.2883127127E+01               0
GRID*                399               02.0000000000E+01-3.132003939E+01+
*       6.6500740262E+01               0
GRID*                400               02.0000000000E+01-4.330474595E+01+
*       8.8292280621E+01               0
GRID*                401               02.0000000000E+01-3.420475706E+01+
*       7.1611968537E+01               0
GRID*                402               02.0000000000E+01-4.003835131E+01+
*       8.2094133012E+01               0
GRID*                403               02.0000000000E+01-3.707527237E+01+
*       7.6759788113E+01               0
GRID*                404               02.0000000000E+01-6.916883205E+01+
*       4.4915328083E+01               0
GRID*                405               02.0000000000E+01-6.408952676E+01+
*       4.6778047110E+01               0
GRID*                406               02.0000000000E+01-5.894671528E+01+
*       4.8458828309E+01               0
GRID*                407               02.0000000000E+01-5.357817851E+01+
*       5.0087670931E+01               0
GRID*                408               02.0000000000E+01-4.795401741E+01+
*       5.1911316844E+01               0
GRID*                409               02.0000000000E+01-4.212033039E+01+
*       5.3986002215E+01               0
GRID*                410               02.0000000000E+01-3.615865315E+01+
*       5.5735137381E+01               0
GRID*                411               02.0000000000E+01-4.320678861E+01+
*       4.7897819456E+01               0
GRID*                412               02.0000000000E+01-4.427694012E+01+
*       4.1821219204E+01               0
GRID*                413               02.0000000000E+01-4.500104607E+01+
*       3.5706809690E+01               0
GRID*                414               02.0000000000E+01-4.534589212E+01+
*       2.9986621236E+01               0
GRID*                415               02.0000000000E+01-5.476491966E+01+
*       4.4720586897E+01               0
GRID*                416               02.0000000000E+01-5.625410200E+01+
*       4.0495459817E+01               0
GRID*                417               02.0000000000E+01-5.542494190E+01+
*       3.6089496866E+01               0
GRID*                418               02.0000000000E+01-5.977201414E+01+
*       4.3436899218E+01               0
GRID*                419               02.0000000000E+01-6.007424420E+01+
*       3.8659900065E+01               0
GRID*                420               02.0000000000E+01-6.449851026E+01+
*       4.1663880378E+01               0
GRID*                421               02.0000000000E+01-4.909462503E+01+
*       4.6048637177E+01               0
GRID*                422               02.0000000000E+01-5.030011282E+01+
*       3.3347774953E+01               0
GRID*                423               02.0000000000E+01-5.073142762E+01+
*       3.9752851933E+01               0
GRID*                424               02.0000000000E+01-3.747350340E+01+
*       4.9888165312E+01               0
GRID*                425               02.0000000000E+01-3.846350551E+01+
*       4.3934179487E+01               0
GRID*                426               02.0000000000E+01-3.935548202E+01+
*       3.7866076954E+01               0
GRID*                427               02.0000000000E+01-4.014281130E+01+
*       3.1985948782E+01               0
GRID*                428               02.0000000000E+01-4.080567162E+01+
*       2.6547428679E+01               0
GRID*                429               02.0000000000E+01-3.672725185E+01+
*       2.2994392361E+01               0
GRID*                430               02.0000000000E+01-3.354283606E+01+
*       1.9495204789E+01               0
GRID*                431               02.0000000000E+01-3.104260604E+01+
*       1.6571265223E+01               0
GRID*                432               02.0000000000E+01-2.874986020E+01+
*       1.3925249652E+01               0
GRID*                433               02.0000000000E+01-2.711536233E+01+
*       1.0988720414E+01               0
GRID*                434               02.0000000000E+01-2.584364282E+01+
*       9.1729398679E+00               0
GRID*                435               02.0000000000E+01-2.456252812E+01+
*       8.3484636029E+00               0
GRID*                436               02.0000000000E+01-2.758018054E+01+
*       1.7288066605E+01               0
GRID*                437               02.0000000000E+01-2.375524998E+01+
*       1.8432393264E+01               0
GRID*                438               02.0000000000E+01-2.476297464E+01+
*       1.4063342391E+01               0
GRID*                439               02.0000000000E+01-2.436907514E+01+
*       1.0416070667E+01               0
GRID*                440               02.0000000000E+01-2.269207290E+01+
*       2.2593192906E+01               0
GRID*                441               02.0000000000E+01-2.109952887E+01+
*       2.7254953364E+01               0
GRID*                442               02.0000000000E+01-1.914893644E+01+
*       3.2505844557E+01               0
GRID*                443               02.0000000000E+01-3.465195535E+01+
*       3.3909585007E+01               0
GRID*                444               02.0000000000E+01-3.023294183E+01+
*       2.9819721366E+01               0
GRID*                445               02.0000000000E+01-2.614233195E+01+
*       2.5998445788E+01               0
GRID*                446               02.0000000000E+01-3.566491090E+01+
*       2.8185246888E+01               0
GRID*                447               02.0000000000E+01-3.132607925E+01+
*       2.3899829868E+01               0
GRID*                448               02.0000000000E+01-2.688483282E+01+
*       2.1257151564E+01               0
GRID*                449               02.0000000000E+01-3.005536203E+01+
*       1.9602304062E+01               0
GRID*                450               02.0000000000E+01-2.471791773E+01+
*       3.1414629746E+01               0
GRID*                451               02.0000000000E+01-3.361190701E+01+
*       4.0065452281E+01               0
GRID*                452               02.0000000000E+01-2.889221446E+01+
*       3.5835233328E+01               0
GRID*                453               02.0000000000E+01-2.285259258E+01+
*       3.7278327646E+01               0
GRID*                454               02.0000000000E+01-3.295009326E+01+
*       4.6183374414E+01               0
GRID*                455               02.0000000000E+01-2.728345671E+01+
*       4.2821768660E+01               0
GRID*                456               02.0000000000E+01-2.865223336E+01+
*       4.8567433699E+01               0
GRID*                457               02.0000000000E+01-3.214530389E+01+
*       5.1710649904E+01               0
GRID*                458               02.0000000000E+01-9.488935500E+01+
*       6.8552868642E+01               0
GRID*                459               02.0000000000E+01-8.964575756E+01+
*       6.5123291561E+01               0
GRID*                460               02.0000000000E+01-8.416599808E+01+
*       6.1631368724E+01               0
GRID*                461               02.0000000000E+01-7.869904598E+01+
*       5.7839966247E+01               0
GRID*                462               02.0000000000E+01-7.358714571E+01+
*       5.3965592363E+01               0
GRID*                463               02.0000000000E+01-6.872484235E+01+
*       5.0304076383E+01               0
GRID*                464               02.0000000000E+01-7.904927297E+01+
*       5.1911641561E+01               0
GRID*                465               02.0000000000E+01-7.400286275E+01+
*       4.8357892475E+01               0
GRID*                466               02.0000000000E+01-8.957141730E+01+
*       5.9074658768E+01               0
GRID*                467               02.0000000000E+01-9.482359468E+01+
*       6.2551725833E+01               0
GRID*                468               02.0000000000E+01-8.425083041E+01+
*       5.5526820081E+01               0
GRID*                469               02.0000000000E+01-9.493238091E+01+
*       7.4535733371E+01               0
GRID*                470               02.0000000000E+01-8.976397060E+01+
*       7.1141704767E+01               0
GRID*                471               02.0000000000E+01-8.436813734E+01+
*       6.7839253331E+01               0
GRID*                472               02.0000000000E+01-7.806062227E+01+
*       6.4517786233E+01               0
GRID*                473               02.0000000000E+01-7.285480100E+01+
*       5.9726872365E+01               0
GRID*                474               02.0000000000E+01-6.806955376E+01+
*       5.5804664987E+01               0
GRID*                475               02.0000000000E+01-6.342032764E+01+
*       5.2110938842E+01               0
GRID*                476               02.0000000000E+01-9.495295715E+01+
*       8.0483724029E+01               0
GRID*                477               02.0000000000E+01-8.986578457E+01+
*       7.7052604490E+01               0
GRID*                478               02.0000000000E+01-8.470738179E+01+
*       7.3762075665E+01               0
GRID*                479               02.0000000000E+01-7.950404184E+01+
*       7.0785021165E+01               0
GRID*                480               02.0000000000E+01-7.496012474E+01+
*       6.8829067703E+01               0
GRID*                481               02.0000000000E+01-7.165124030E+01+
*       6.5193922945E+01               0
GRID*                482               02.0000000000E+01-6.723630011E+01+
*       6.1295355533E+01               0
GRID*                483               02.0000000000E+01-6.265543442E+01+
*       5.7546195248E+01               0
GRID*                484               02.0000000000E+01-5.809583490E+01+
*       5.3868984240E+01               0
GRID*                485               02.0000000000E+01-9.493654878E+01+
*       8.6416595722E+01               0
GRID*                486               02.0000000000E+01-8.988229719E+01+
*       8.2909219810E+01               0
GRID*                487               02.0000000000E+01-8.482641300E+01+
*       7.9509691088E+01               0
GRID*                488               02.0000000000E+01-7.980711938E+01+
*       7.6278867694E+01               0
GRID*                489               02.0000000000E+01-7.501881462E+01+
*       7.3301104788E+01               0
GRID*                490               02.0000000000E+01-7.065859096E+01+
*       7.0171523093E+01               0
GRID*                491               02.0000000000E+01-6.636747068E+01+
*       6.6616938450E+01               0
GRID*                492               02.0000000000E+01-6.187619628E+01+
*       6.2955085997E+01               0
GRID*                493               02.0000000000E+01-5.732579458E+01+
*       5.9346970888E+01               0
GRID*                494               02.0000000000E+01-5.270393343E+01+
*       5.5737423223E+01               0
GRID*                495               02.0000000000E+01-9.488503564E+01+
*       9.2354180407E+01               0
GRID*                496               02.0000000000E+01-8.981835895E+01+
*       8.8767034906E+01               0
GRID*                497               02.0000000000E+01-8.478934362E+01+
*       8.5260699019E+01               0
GRID*                498               02.0000000000E+01-7.980973642E+01+
*       8.1859446772E+01               0
GRID*                499               02.0000000000E+01-7.493193175E+01+
*       7.8573750258E+01               0
GRID*                500               02.0000000000E+01-7.022540009E+01+
*       7.5301231051E+01               0
GRID*                501               02.0000000000E+01-6.565248888E+01+
*       7.1870006568E+01               0
GRID*                502               02.0000000000E+01-6.112576664E+01+
*       6.8288668098E+01               0
GRID*                503               02.0000000000E+01-5.664158030E+01+
*       6.4730845106E+01               0
GRID*                504               02.0000000000E+01-5.210263576E+01+
*       6.1331375566E+01               0
GRID*                505               02.0000000000E+01-4.720250099E+01+
*       5.7921532748E+01               0
GRID*                506               02.0000000000E+01-7.476677011E+01+
*       8.4102967889E+01               0
GRID*                507               02.0000000000E+01-6.965364544E+01+
*       8.6298663207E+01               0
GRID*                508               02.0000000000E+01-6.447077947E+01+
*       8.8524884441E+01               0
GRID*                509               02.0000000000E+01-5.925453482E+01+
*       9.0734810443E+01               0
GRID*                510               02.0000000000E+01-5.956686690E+01+
*       8.5151173847E+01               0
GRID*                511               02.0000000000E+01-5.974427065E+01+
*       7.9345791393E+01               0
GRID*                512               02.0000000000E+01-6.039965150E+01+
*       7.3676721561E+01               0
GRID*                513               02.0000000000E+01-6.475664096E+01+
*       8.2885144183E+01               0
GRID*                514               02.0000000000E+01-6.512668050E+01+
*       7.7296271882E+01               0
GRID*                515               02.0000000000E+01-6.991054353E+01+
*       8.0742445488E+01               0
GRID*                516               02.0000000000E+01-4.898314472E+01+
*       7.6548061192E+01               0
GRID*                517               02.0000000000E+01-5.487691729E+01+
*       7.5426215308E+01               0
GRID*                518               02.0000000000E+01-5.358029154E+01+
*       8.1933219177E+01               0
GRID*                519               02.0000000000E+01-5.528003136E+01+
*       8.7546463598E+01               0
GRID*                520               02.0000000000E+01-5.072930764E+01+
*       7.1401674980E+01               0
GRID*                521               02.0000000000E+01-5.167439200E+01+
*       6.6550942985E+01               0
GRID*                522               02.0000000000E+01-5.590220424E+01+
*       7.0006161772E+01               0
GRID*                523               02.0000000000E+01-4.556555382E+01+
*       7.1992156010E+01               0
GRID*                524               02.0000000000E+01-4.764685058E+01+
*       6.8181627198E+01               0
GRID*                525               02.0000000000E+01-4.099662640E+01+
*       6.0938695358E+01               0
GRID*                526               02.0000000000E+01-4.718167336E+01+
*       6.3726867183E+01               0
GRID*                527               02.0000000000E+01-4.313485917E+01+
*       6.7267745633E+01               0
GRID*                528               02.0000000000E+01-9.480462153E+01+
*       9.8310674961E+01               0
GRID*                529               02.0000000000E+01-8.968723055E+01+
*       9.4654627217E+01               0
GRID*                530               02.0000000000E+01-8.464534954E+01+
*       9.1052269933E+01               0
GRID*                531               02.0000000000E+01-7.966770357E+01+
*       8.7540419450E+01               0
GRID*                532               02.0000000000E+01-9.470533107E+01+
*       1.0428511736E+02               0
GRID*                533               02.0000000000E+01-8.949857647E+01+
*       1.0059967491E+02               0
GRID*                534               02.0000000000E+01-8.440367424E+01+
*       9.6900282934E+01               0
GRID*                535               02.0000000000E+01-7.943571420E+01+
*       9.3274475266E+01               0
GRID*                536               02.0000000000E+01-7.452939220E+01+
*       8.9765928608E+01               0
GRID*                537               02.0000000000E+01-9.459382972E+01+
*       1.1019019215E+02               0
GRID*                538               02.0000000000E+01-8.929539583E+01+
*       1.0662759668E+02               0
GRID*                539               02.0000000000E+01-8.403475866E+01+
*       1.0287491239E+02               0
GRID*                540               02.0000000000E+01-7.907179059E+01+
*       9.9045100305E+01               0
GRID*                541               02.0000000000E+01-7.424475040E+01+
*       9.5459004879E+01               0
GRID*                542               02.0000000000E+01-6.937373904E+01+
*       9.2004432833E+01               0
GRID*                543               02.0000000000E+01-9.425372430E+01+
*       1.1583157327E+02               0
GRID*                544               02.0000000000E+01-8.933722888E+01+
*       1.1239845526E+02               0
GRID*                545               02.0000000000E+01-8.345768464E+01+
*       1.0945278283E+02               0
GRID*                546               02.0000000000E+01-7.844642898E+01+
*       1.0480516076E+02               0
GRID*                547               02.0000000000E+01-7.386168073E+01+
*       1.0108022555E+02               0
GRID*                548               02.0000000000E+01-6.914609024E+01+
*       9.7703776605E+01               0
GRID*                549               02.0000000000E+01-6.414388932E+01+
*       9.4359428977E+01               0
GRID*                550               02.0000000000E+01-7.716908723E+01+
*       1.1025513392E+02               0
GRID*                551               02.0000000000E+01-7.537387952E+01+
*       1.1518259911E+02               0
GRID*                552               02.0000000000E+01-7.202844350E+01+
*       1.1108603832E+02               0
GRID*                553               02.0000000000E+01-7.327002200E+01+
*       1.0634528390E+02               0
GRID*                554               02.0000000000E+01-6.916713332E+01+
*       1.0768157261E+02               0
GRID*                555               02.0000000000E+01-6.417091121E+01+
*       1.0020032814E+02               0
GRID*                556               02.0000000000E+01-6.898832297E+01+
*       1.0320923461E+02               0
GRID*                557               02.0000000000E+01-8.527548067E+01+
*       1.1462548940E+02               0
GRID*                558               02.0000000000E+01-8.065527483E+01+
*       1.1464399915E+02               0
GRID*                559               02.0000000000E+01-7.878733706E+01+
*       1.1939552865E+02               0
GRID*                560               02.0000000000E+01-8.888405442E+01+
*       1.1749936392E+02               0
GRID*                561               02.0000000000E+01-8.395051095E+01+
*       1.1867840261E+02               0
GRID*                562               02.0000000000E+01-8.769603780E+01+
*       1.2235790161E+02               0
GRID*                563               02.0000000000E+01-8.642397358E+01+
*       1.2751530923E+02               0
GRID*                564               02.0000000000E+01-8.240042075E+01+
*       1.2350140590E+02               0
GRID*                565               02.0000000000E+01-9.558897113E+01+
*       1.2889896689E+02               0
GRID*                566               02.0000000000E+01-9.159059980E+01+
*       1.2586745697E+02               0
GRID*                567               02.0000000000E+01-9.293330003E+01+
*       1.2101397304E+02               0
GRID*                568               02.0000000000E+01-9.594080574E+01+
*       1.2446144908E+02               0
GRID*                569               02.0000000000E+01-9.520756122E+01+
*       1.3409040145E+02               0
GRID*                570               02.0000000000E+01-9.086248927E+01+
*       1.3092045164E+02               0
GRID*                571               02.0000000000E+01-9.079440365E+01+
*       1.3553838819E+02               0
GRID*                572               02.0000000000E+01-9.420502622E+01+
*       1.3926128530E+02               0
GRID*                573               02.0000000000E+01-4.480028505E+00+
*       1.5459070711E+01               0
GRID*                574               02.0000000000E+01-7.503350531E+00+
*       2.4262198999E+01               0
GRID*                575               02.0000000000E+01-9.348039360E+00+
*       1.9454787242E+01               0
GRID*                576               02.0000000000E+01-1.094129315E+01+
*       1.4121856045E+01               0
GRID*                577               02.0000000000E+01-4.848459798E+00+
*       2.0721731267E+01               0
GRID*                578               02.0000000000E+011.7823318022E+01+
*       9.7894493084E+00               0
GRID*                579               02.0000000000E+011.9764231616E+01+
*       1.1176773140E+01               0
GRID*                580               02.0000000000E+012.1592177449E+01+
*       1.2075227342E+01               0
GRID*                581               02.0000000000E+012.4684554158E+01+
*       1.3469392912E+01               0
GRID*                582               02.0000000000E+012.6586646175E+01+
*       1.5593204628E+01               0
GRID*                583               02.0000000000E+012.9322405910E+01+
*       1.7749039948E+01               0
GRID*                584               02.0000000000E+013.3633755427E+01+
*       1.9759809946E+01               0
GRID*                585               02.0000000000E+013.8268122600E+01+
*       2.3682312382E+01               0
GRID*                586               02.0000000000E+014.3106056458E+01+
*       2.7637530753E+01               0
GRID*                587               02.0000000000E+014.8117474739E+01+
*       3.1777679024E+01               0
GRID*                588               02.0000000000E+015.2552495578E+01+
*       3.5961408532E+01               0
GRID*                589               02.0000000000E+015.6497113603E+01+
*       3.9638626374E+01               0
GRID*                590               02.0000000000E+016.0795878908E+01+
*       4.2970810131E+01               0
GRID*                591               02.0000000000E+016.5398874525E+01+
*       4.6353501687E+01               0
GRID*                592               02.0000000000E+017.0074154481E+01+
*       4.9798997765E+01               0
GRID*                593               02.0000000000E+017.4771996941E+01+
*       5.3364871627E+01               0
GRID*                594               02.0000000000E+017.9552152888E+01+
*       5.7053441957E+01               0
GRID*                595               02.0000000000E+018.4466011714E+01+
*       6.0781323333E+01               0
GRID*                596               02.0000000000E+018.9478851763E+01+
*       6.4455400649E+01               0
GRID*                597               02.0000000000E+019.4581119814E+01+
*       6.8139345160E+01               0
GRID*                598               02.0000000000E+012.3341397187E+01+
*       1.1711276743E+01               0
GRID*                599               02.0000000000E+012.3942656218E+01+
*       9.8992084795E+00               0
GRID*                600               02.0000000000E+012.1929693706E+01+
*       8.1615220997E+00               0
GRID*                601               02.0000000000E+012.3070555615E+01+
*       8.7647505122E+00               0
GRID*                602               02.0000000000E+012.0040804543E+01+
*       8.8610210347E+00               0
GRID*                603               02.0000000000E+012.1963476934E+01+
*       1.0090524183E+01               0
GRID*                604               02.0000000000E+012.7133466667E+01+
*       1.2794836355E+01               0
GRID*                605               02.0000000000E+012.5344233550E+01+
*       1.1245940986E+01               0
GRID*                606               02.0000000000E+013.1948099082E+01+
*       1.5921620082E+01               0
GRID*                607               02.0000000000E+012.9450304052E+01+
*       1.4399542131E+01               0
GRID*                608               02.0000000000E+015.7229881015E+01+
*       3.5243689720E+01               0
GRID*                609               02.0000000000E+016.1175497405E+01+
*       3.7739679225E+01               0
GRID*                610               02.0000000000E+016.5737460595E+01+
*       4.0849621689E+01               0
GRID*                611               02.0000000000E+017.0448702219E+01+
*       4.4185637333E+01               0
GRID*                612               02.0000000000E+017.5196505766E+01+
*       4.7650632469E+01               0
GRID*                613               02.0000000000E+017.9976799306E+01+
*       5.1218659825E+01               0
GRID*                614               02.0000000000E+018.4820634381E+01+
*       5.4858678668E+01               0
GRID*                615               02.0000000000E+018.9749593018E+01+
*       5.8530841343E+01               0
GRID*                616               02.0000000000E+019.4785031745E+01+
*       6.2229083163E+01               0
GRID*                617               02.0000000000E+019.4114880527E+01+
*       7.3943168769E+01               0
GRID*                618               02.0000000000E+018.9084028234E+01+
*       7.0309203725E+01               0
GRID*                619               02.0000000000E+018.4012312903E+01+
*       6.6819304517E+01               0
GRID*                620               02.0000000000E+017.8901409679E+01+
*       6.3056188476E+01               0
GRID*                621               02.0000000000E+017.4089787600E+01+
*       5.9123902239E+01               0
GRID*                622               02.0000000000E+016.9484994412E+01+
*       5.5398489468E+01               0
GRID*                623               02.0000000000E+016.4939263362E+01+
*       5.1888000035E+01               0
GRID*                624               02.0000000000E+016.0266653526E+01+
*       4.8508746422E+01               0
GRID*                625               02.0000000000E+015.5674311525E+01+
*       4.4899638171E+01               0
GRID*                626               02.0000000000E+015.1563975852E+01+
*       4.1175875991E+01               0
GRID*                627               02.0000000000E+014.7211019921E+01+
*       3.7688439979E+01               0
GRID*                628               02.0000000000E+014.2195037048E+01+
*       3.3837932651E+01               0
GRID*                629               02.0000000000E+013.7312408206E+01+
*       2.9545049256E+01               0
GRID*                630               02.0000000000E+013.2859649794E+01+
*       2.5453262098E+01               0
GRID*                631               02.0000000000E+012.8909160505E+01+
*       2.1908768664E+01               0
GRID*                632               02.0000000000E+012.5813430338E+01+
*       1.8933970921E+01               0
GRID*                633               02.0000000000E+012.3158983988E+01+
*       1.6101217297E+01               0
GRID*                634               02.0000000000E+012.0166124021E+01+
*       1.4016737597E+01               0
GRID*                635               02.0000000000E+011.7048328616E+01+
*       1.2339669760E+01               0
GRID*                636               02.0000000000E+011.3958157076E+01+
*       1.1284971499E+01               0
GRID*                637               02.0000000000E+015.4476020662E+01+
*       1.4477870280E+02               0
GRID*                638               02.0000000000E+015.1395881685E+01+
*       1.3954841827E+02               0
GRID*                639               02.0000000000E+014.8328380524E+01+
*       1.3431348879E+02               0
GRID*                640               02.0000000000E+014.5270973251E+01+
*       1.2907623788E+02               0
GRID*                641               02.0000000000E+014.2219597372E+01+
*       1.2384047376E+02               0
GRID*                642               02.0000000000E+013.9168817149E+01+
*       1.1860849433E+02               0
GRID*                643               02.0000000000E+013.6123120581E+01+
*       1.1337806504E+02               0
GRID*                644               02.0000000000E+013.3083181676E+01+
*       1.0815189040E+02               0
GRID*                645               02.0000000000E+013.0057020836E+01+
*       1.0292906984E+02               0
GRID*                646               02.0000000000E+012.7060194583E+01+
*       9.7709544446E+01               0
GRID*                647               02.0000000000E+012.4112037160E+01+
*       9.2482733530E+01               0
GRID*                648               02.0000000000E+012.1232973050E+01+
*       8.7220227847E+01               0
GRID*                649               02.0000000000E+011.8406050322E+01+
*       8.1864410316E+01               0
GRID*                650               02.0000000000E+011.5538086842E+01+
*       7.6389856840E+01               0
GRID*                651               02.0000000000E+011.2558478757E+01+
*       7.0895785812E+01               0
GRID*                652               02.0000000000E+019.5220951160E+00+
*       6.5480428862E+01               0
GRID*                653               02.0000000000E+016.4880581268E+00+
*       6.0126359461E+01               0
GRID*                654               02.0000000000E+013.4650286932E+00+
*       5.4792053232E+01               0
GRID*                655               02.0000000000E+014.6441921958E-01+
*       4.9451692047E+01               0
GRID*                656               02.0000000000E+01-2.481124206E+00+
*       4.4108491032E+01               0
GRID*                657               02.0000000000E+01-5.319694086E+00+
*       3.8806985025E+01               0
GRID*                658               02.0000000000E+019.4974083523E+00+
*       7.6278383115E+01               0
GRID*                659               02.0000000000E+016.4477828021E+00+
*       8.1568516221E+01               0
GRID*                660               02.0000000000E+013.4017380491E+00+
*       8.6814789180E+01               0
GRID*                661               02.0000000000E+013.3847719953E-01+
*       9.2042014213E+01               0
GRID*                662               02.0000000000E+01-2.756391019E+00+
*       9.7265315044E+01               0
GRID*                663               02.0000000000E+01-5.884573506E+00+
*       1.0250051289E+02               0
GRID*                664               02.0000000000E+01-9.032377124E+00+
*       1.0775992403E+02               0
GRID*                665               02.0000000000E+01-1.217340763E+01+
*       1.1304305253E+02               0
GRID*                666               02.0000000000E+01-1.528712572E+01+
*       1.1833924466E+02               0
GRID*                667               02.0000000000E+01-1.836584621E+01+
*       1.2363313076E+02               0
GRID*                668               02.0000000000E+01-2.141216058E+01+
*       1.2892141459E+02               0
GRID*                669               02.0000000000E+01-2.443139559E+01+
*       1.3420458918E+02               0
GRID*                670               02.0000000000E+01-2.742400901E+01+
*       1.3948061007E+02               0
GRID*                671               02.0000000000E+01-3.039088138E+01+
*       1.4474707932E+02               0
GRID*                672               02.0000000000E+01-1.525530931E+01+
*       1.2891790049E+02               0
GRID*                673               02.0000000000E+01-9.120222454E+00+
*       1.2891901697E+02               0
GRID*                674               02.0000000000E+01-3.008977242E+00+
*       1.2892086441E+02               0
GRID*                675               02.0000000000E+013.0827437910E+00+
*       1.2892292405E+02               0
GRID*                676               02.0000000000E+019.1594888215E+00+
*       1.2892541713E+02               0
GRID*                677               02.0000000000E+011.5223145776E+01+
*       1.2892970171E+02               0
GRID*                678               02.0000000000E+012.1274753696E+01+
*       1.2893845847E+02               0
GRID*                679               02.0000000000E+012.7308416086E+01+
*       1.2895793526E+02               0
GRID*                680               02.0000000000E+013.3320369426E+01+
*       1.2898963632E+02               0
GRID*                681               02.0000000000E+013.9301143409E+01+
*       1.2903223051E+02               0
GRID*                682               02.0000000000E+012.4289350570E+01+
*       1.2370133373E+02               0
GRID*                683               02.0000000000E+012.1277345379E+01+
*       1.1844198516E+02               0
GRID*                684               02.0000000000E+011.8267111078E+01+
*       1.1318228721E+02               0
GRID*                685               02.0000000000E+011.5261309628E+01+
*       1.0792140201E+02               0
GRID*                686               02.0000000000E+011.2266594224E+01+
*       1.0265630805E+02               0
GRID*                687               02.0000000000E+019.2874811578E+00+
*       9.7386863019E+01               0
GRID*                688               02.0000000000E+016.3332358265E+00+
*       9.2105150157E+01               0
GRID*                689               02.0000000000E+01-9.114135638E+00+
*       1.1835617148E+02               0
GRID*                690               02.0000000000E+01-2.982317894E+00+
*       1.1837310430E+02               0
GRID*                691               02.0000000000E+013.1175152586E+00+
*       1.1838608804E+02               0
GRID*                692               02.0000000000E+019.1927308874E+00+
*       1.1839907578E+02               0
GRID*                693               02.0000000000E+011.5242718166E+01+
*       1.1841846073E+02               0
GRID*                694               02.0000000000E+01-2.906725424E+00+
*       1.0781161497E+02               0
GRID*                695               02.0000000000E+013.1775038541E+00+
*       1.0785003615E+02               0
GRID*                696               02.0000000000E+019.2298854379E+00+
*       1.0788550559E+02               0
GRID*                697               02.0000000000E+011.9252469696E-01+
*       1.0255923403E+02               0
GRID*                698               02.0000000000E+016.2382984846E+00+
*       1.0261092627E+02               0
GRID*                699               02.0000000000E+013.2723832024E+00+
*       9.7327390871E+01               0
GRID*                700               02.0000000000E+01-6.017253681E+00+
*       1.1307456499E+02               0
GRID*                701               02.0000000000E+011.2228953329E+01+
*       1.1315653480E+02               0
GRID*                702               02.0000000000E+016.1745532480E+00+
*       1.1313110157E+02               0
GRID*                703               02.0000000000E+019.4178409989E-02+
*       1.1310373714E+02               0
GRID*                704               02.0000000000E+01-1.219934692E+01+
*       1.2363557029E+02               0
GRID*                705               02.0000000000E+011.8252500114E+01+
*       1.2368283129E+02               0
GRID*                706               02.0000000000E+01-6.061712867E+00+
*       1.2364281358E+02               0
GRID*                707               02.0000000000E+011.2201911875E+01+
*       1.2366920142E+02               0
GRID*                708               02.0000000000E+016.1346674585E+00+
*       1.2365941708E+02               0
GRID*                709               02.0000000000E+014.6837828385E-02+
*       1.2365082991E+02               0
GRID*                710               02.0000000000E+011.8248044133E+01+
*       1.0272757994E+02               0
GRID*                711               02.0000000000E+012.4172960857E+01+
*       1.0282647211E+02               0
GRID*                712               02.0000000000E+019.3781643549E+00+
*       8.6890617264E+01               0
GRID*                713               02.0000000000E+011.2434856830E+01+
*       8.1671098595E+01               0
GRID*                714               02.0000000000E+011.5264857351E+01+
*       9.7470325599E+01               0
GRID*                715               02.0000000000E+011.2310577023E+01+
*       9.2195395368E+01               0
GRID*                716               02.0000000000E+011.8246245194E+01+
*       9.2326221232E+01               0
GRID*                717               02.0000000000E+011.5336533513E+01+
*       8.7031276156E+01               0
GRID*                718               02.0000000000E+012.1183880270E+01+
*       9.7591855850E+01               0
GRID*                719               02.0000000000E+013.6260881719E+01+
*       1.2378895958E+02               0
GRID*                720               02.0000000000E+013.0285009064E+01+
*       1.2374315222E+02               0
GRID*                721               02.0000000000E+012.4254340119E+01+
*       1.1323625963E+02               0
GRID*                722               02.0000000000E+013.0198861527E+01+
*       1.1330597685E+02               0
GRID*                723               02.0000000000E+012.1233289304E+01+
*       1.0799176274E+02               0
GRID*                724               02.0000000000E+012.7164536604E+01+
*       1.0807433333E+02               0
GRID*                725               02.0000000000E+013.3217137077E+01+
*       1.1855108941E+02               0
GRID*                726               02.0000000000E+012.7252107993E+01+
*       1.1849721763E+02               0
GRID*                727               02.0000000000E+011.0550060884E-02+
*       1.4473035058E+02               0
GRID*                728               02.0000000000E+01-3.020342272E+00+
*       1.3946128383E+02               0
GRID*                729               02.0000000000E+01-6.065279941E+00+
*       1.3419143875E+02               0
GRID*                730               02.0000000000E+01-1.829594329E+01+
*       1.3419529593E+02               0
GRID*                731               02.0000000000E+01-1.217428285E+01+
*       1.3419202026E+02               0
GRID*                732               02.0000000000E+01-1.821898998E+01+
*       1.4473406862E+02               0
GRID*                733               02.0000000000E+01-2.131295549E+01+
*       1.3947009478E+02               0
GRID*                734               02.0000000000E+01-2.430563889E+01+
*       1.4473941575E+02               0
GRID*                735               02.0000000000E+01-1.520795178E+01+
*       1.3946481676E+02               0
GRID*                736               02.0000000000E+01-9.111351242E+00+
*       1.3946250884E+02               0
GRID*                737               02.0000000000E+01-6.063590220E+00+
*       1.4473141764E+02               0
GRID*                738               02.0000000000E+01-1.214097707E+01+
*       1.4473260108E+02               0
GRID*                739               02.0000000000E+013.6336569084E+01+
*       1.3424812248E+02               0
GRID*                740               02.0000000000E+013.3336046826E+01+
*       1.3948449773E+02               0
GRID*                741               02.0000000000E+013.0310493501E+01+
*       1.4473789308E+02               0
GRID*                742               02.0000000000E+013.9364830373E+01+
*       1.3950460723E+02               0
GRID*                743               02.0000000000E+014.5381683331E+01+
*       1.3952658592E+02               0
GRID*                744               02.0000000000E+014.2328996277E+01+
*       1.3428342927E+02               0
GRID*                745               02.0000000000E+014.8437649343E+01+
*       1.4476755010E+02               0
GRID*                746               02.0000000000E+013.6357167918E+01+
*       1.4474677101E+02               0
GRID*                747               02.0000000000E+014.2397993796E+01+
*       1.4475731566E+02               0
GRID*                748               02.0000000000E+012.4282277645E+01+
*       1.3420658666E+02               0
GRID*                749               02.0000000000E+012.7293075244E+01+
*       1.3947395929E+02               0
GRID*                750               02.0000000000E+013.0312110177E+01+
*       1.3422723398E+02               0
GRID*                751               02.0000000000E+011.8232725423E+01+
*       1.3419863035E+02               0
GRID*                752               02.0000000000E+012.1242679261E+01+
*       1.3946736073E+02               0
GRID*                753               02.0000000000E+012.4255065697E+01+
*       1.4473508469E+02               0
GRID*                754               02.0000000000E+011.5187277179E+01+
*       1.3946315629E+02               0
GRID*                755               02.0000000000E+011.2139423502E+01+
*       1.4473063229E+02               0
GRID*                756               02.0000000000E+011.8197906678E+01+
*       1.4473280143E+02               0
GRID*                757               02.0000000000E+016.0765102995E+00+
*       1.4473034672E+02               0
GRID*                758               02.0000000000E+011.2173202761E+01+
*       1.3419504349E+02               0
GRID*                759               02.0000000000E+019.1242188022E+00+
*       1.3946193580E+02               0
GRID*                760               02.0000000000E+013.0552093672E+00+
*       1.3946139370E+02               0
GRID*                761               02.0000000000E+016.1039990724E+00+
*       1.3419327538E+02               0
GRID*                762               02.0000000000E+012.4226399673E-02+
*       1.3419211809E+02               0
GRID*                763               02.0000000000E+01-2.150730535E+01+
*       1.1832139093E+02               0
GRID*                764               02.0000000000E+01-2.775067920E+01+
*       1.1831852396E+02               0
GRID*                765               02.0000000000E+01-3.399849889E+01+
*       1.1833980376E+02               0
GRID*                766               02.0000000000E+01-4.025788376E+01+
*       1.1839499081E+02               0
GRID*                767               02.0000000000E+01-4.662497755E+01+
*       1.1849780369E+02               0
GRID*                768               02.0000000000E+01-4.254649103E+01+
*       1.4479070982E+02               0
GRID*                769               02.0000000000E+01-4.571008111E+01+
*       1.3962273565E+02               0
GRID*                770               02.0000000000E+01-4.889350312E+01+
*       1.3451990397E+02               0
GRID*                771               02.0000000000E+01-5.212224150E+01+
*       1.2953803507E+02               0
GRID*                772               02.0000000000E+01-5.461518227E+01+
*       1.4486683900E+02               0
GRID*                773               02.0000000000E+01-5.766043106E+01+
*       1.3979135830E+02               0
GRID*                774               02.0000000000E+01-6.060830343E+01+
*       1.4489323143E+02               0
GRID*                775               02.0000000000E+01-5.481894770E+01+
*       1.3469659264E+02               0
GRID*                776               02.0000000000E+01-5.171821396E+01+
*       1.3972016826E+02               0
GRID*                777               02.0000000000E+01-4.859464761E+01+
*       1.4483317261E+02               0
GRID*                778               02.0000000000E+01-4.283932805E+01+
*       1.3437721912E+02               0
GRID*                779               02.0000000000E+01-3.994880318E+01+
*       1.2906812886E+02               0
GRID*                780               02.0000000000E+01-3.699881594E+01+
*       1.2371293463E+02               0
GRID*                781               02.0000000000E+01-4.952500475E+01+
*       1.2413290866E+02               0
GRID*                782               02.0000000000E+01-4.609934920E+01+
*       1.2925061054E+02               0
GRID*                783               02.0000000000E+01-4.323916994E+01+
*       1.2384983536E+02               0
GRID*                784               02.0000000000E+01-3.647420650E+01+
*       1.4476510358E+02               0
GRID*                785               02.0000000000E+01-3.353808436E+01+
*       1.3950831596E+02               0
GRID*                786               02.0000000000E+01-3.963925832E+01+
*       1.3955843785E+02               0
GRID*                787               02.0000000000E+01-3.057837374E+01+
*       1.3423215620E+02               0
GRID*                788               02.0000000000E+01-3.671948945E+01+
*       1.3428898120E+02               0
GRID*                789               02.0000000000E+01-3.376818826E+01+
*       1.2898460816E+02               0
GRID*                790               02.0000000000E+01-3.077681352E+01+
*       1.2365678105E+02               0
GRID*                791               02.0000000000E+01-2.758860172E+01+
*       1.2894082673E+02               0
GRID*                792               02.0000000000E+01-2.456664571E+01+
*       1.2363289149E+02               0
GRID*                793               02.0000000000E+013.5345146806E+00+
*       6.5550250890E+01               0
GRID*                794               02.0000000000E+015.5728542848E-01+
*       7.0925883018E+01               0
GRID*                795               02.0000000000E+01-2.434047563E+00+
*       7.6238990928E+01               0
GRID*                796               02.0000000000E+01-5.448014875E+00+
*       8.1488336920E+01               0
GRID*                797               02.0000000000E+01-8.508583020E+00+
*       8.6676794923E+01               0
GRID*                798               02.0000000000E+01-1.165003938E+01+
*       9.1817987949E+01               0
GRID*                799               02.0000000000E+01-1.490603049E+01+
*       9.6964103698E+01               0
GRID*                800               02.0000000000E+01-1.823777757E+01+
*       1.0221472498E+02               0
GRID*                801               02.0000000000E+01-2.151432865E+01+
*       1.0758235368E+02               0
GRID*                802               02.0000000000E+01-2.467132013E+01+
*       1.1296378051E+02               0
GRID*                803               02.0000000000E+014.8374777211E-01+
*       8.1519115969E+01               0
GRID*                804               02.0000000000E+016.5279548753E+00+
*       7.0895770893E+01               0
GRID*                805               02.0000000000E+013.5121834043E+00+
*       7.6238011456E+01               0
GRID*                806               02.0000000000E+01-2.566060823E+00+
*       8.6749948062E+01               0
GRID*                807               02.0000000000E+01-5.659004595E+00+
*       9.1950313537E+01               0
GRID*                808               02.0000000000E+01-8.810175489E+00+
*       9.7145568500E+01               0
GRID*                809               02.0000000000E+01-1.201279652E+01+
*       1.0237502219E+02               0
GRID*                810               02.0000000000E+01-1.522432450E+01+
*       1.0766189585E+02               0
GRID*                811               02.0000000000E+01-1.839451384E+01+
*       1.1298516539E+02               0
GRID*                812               02.0000000000E+01-1.456325829E+01+
*       5.4920363834E+01               0
GRID*                813               02.0000000000E+01-8.429895366E+00+
*       5.4892780628E+01               0
GRID*                814               02.0000000000E+01-2.463196318E+00+
*       5.4853160430E+01               0
GRID*                815               02.0000000000E+01-1.141865539E+01+
*       4.9344110086E+01               0
GRID*                816               02.0000000000E+01-5.437345901E+00+
*       4.9434368997E+01               0
GRID*                817               02.0000000000E+01-8.320941357E+00+
*       4.3981619534E+01               0
GRID*                818               02.0000000000E+01-2.788055397E+01+
*       1.0754905527E+02               0
GRID*                819               02.0000000000E+01-3.419882411E+01+
*       1.0763328864E+02               0
GRID*                820               02.0000000000E+01-4.036069825E+01+
*       1.0773750933E+02               0
GRID*                821               02.0000000000E+01-4.343511660E+01+
*       1.1304267681E+02               0
GRID*                822               02.0000000000E+01-3.095314509E+01+
*       1.1296988885E+02               0
GRID*                823               02.0000000000E+01-3.719979821E+01+
*       1.1301902873E+02               0
GRID*                824               02.0000000000E+01-2.466102050E+01+
*       1.0198744586E+02               0
GRID*                825               02.0000000000E+01-3.120792131E+01+
*       1.0208231895E+02               0
GRID*                826               02.0000000000E+01-3.744927044E+01+
*       1.0246017732E+02               0
GRID*                827               02.0000000000E+01-2.112150635E+01+
*       9.6577512853E+01               0
GRID*                828               02.0000000000E+01-2.805121417E+01+
*       9.5734542709E+01               0
GRID*                829               02.0000000000E+01-3.484211072E+01+
*       9.6990459900E+01               0
GRID*                830               02.0000000000E+01-1.761305740E+01+
*       9.1531903230E+01               0
GRID*                831               02.0000000000E+01-2.343059199E+01+
*       9.0998630621E+01               0
GRID*                832               02.0000000000E+01-2.818338468E+01+
*       9.0010056986E+01               0
GRID*                833               02.0000000000E+01-3.288454280E+01+
*       9.1400843843E+01               0
GRID*                834               02.0000000000E+01-1.744382182E+01+
*       6.0632211757E+01               0
GRID*                835               02.0000000000E+01-1.139810115E+01+
*       6.0396455570E+01               0
GRID*                836               02.0000000000E+01-5.415557907E+00+
*       6.0286605030E+01               0
GRID*                837               02.0000000000E+015.3277088853E-01+
*       6.0203521339E+01               0
GRID*                838               02.0000000000E+01-1.439821631E+01+
*       8.6525374590E+01               0
GRID*                839               02.0000000000E+01-2.016807180E+01+
*       8.6298698214E+01               0
GRID*                840               02.0000000000E+01-2.564078472E+01+
*       8.6048949647E+01               0
GRID*                841               02.0000000000E+01-3.091843880E+01+
*       8.6261197780E+01               0
GRID*                842               02.0000000000E+01-1.132902062E+01+
*       8.1429712350E+01               0
GRID*                843               02.0000000000E+01-1.712413035E+01+
*       8.1356922233E+01               0
GRID*                844               02.0000000000E+01-2.278661467E+01+
*       8.1301765594E+01               0
GRID*                845               02.0000000000E+01-2.834984912E+01+
*       8.1377836534E+01               0
GRID*                846               02.0000000000E+01-2.556989297E+01+
*       7.6384152329E+01               0
GRID*                847               02.0000000000E+01-2.277254356E+01+
*       7.1297830350E+01               0
GRID*                848               02.0000000000E+01-2.006631796E+01+
*       6.6102826694E+01               0
GRID*                849               02.0000000000E+01-1.425825796E+01+
*       6.5849633118E+01               0
GRID*                850               02.0000000000E+01-8.349869313E+00+
*       6.5700096013E+01               0
GRID*                851               02.0000000000E+01-2.418753094E+00+
*       6.5606564675E+01               0
GRID*                852               02.0000000000E+01-1.991484692E+01+
*       7.6296007071E+01               0
GRID*                853               02.0000000000E+01-1.707516089E+01+
*       7.1145588327E+01               0
GRID*                854               02.0000000000E+01-1.125982821E+01+
*       7.1033553448E+01               0
GRID*                855               02.0000000000E+01-5.374264014E+00+
*       7.0959608131E+01               0
GRID*                856               02.0000000000E+01-8.337395414E+00+
*       7.6235484057E+01               0
GRID*                857               02.0000000000E+01-1.417832326E+01+
*       7.6248921659E+01               0
GRID*                858               02.0000000000E+016.0498470557E+01+
*       1.4478726241E+02               0
GRID*                859               02.0000000000E+015.7381061088E+01+
*       1.3956509955E+02               0
GRID*                860               02.0000000000E+015.4276828540E+01+
*       1.3433865998E+02               0
GRID*                861               02.0000000000E+015.1183291929E+01+
*       1.2911332305E+02               0
GRID*                862               02.0000000000E+014.8099343399E+01+
*       1.2389151786E+02               0
GRID*                863               02.0000000000E+014.5022564874E+01+
*       1.1867376586E+02               0
GRID*                864               02.0000000000E+014.1951552187E+01+
*       1.1346042342E+02               0
GRID*                865               02.0000000000E+013.8888394661E+01+
*       1.0825365391E+02               0
GRID*                866               02.0000000000E+013.5840775541E+01+
*       1.0305593481E+02               0
GRID*                867               02.0000000000E+013.2825039748E+01+
*       9.7867593725E+01               0
GRID*                868               02.0000000000E+012.9867042695E+01+
*       9.2684326711E+01               0
GRID*                869               02.0000000000E+012.7003403075E+01+
*       8.7490554382E+01               0
GRID*                870               02.0000000000E+012.4274985934E+01+
*       8.2230339217E+01               0
GRID*                871               02.0000000000E+012.1658736138E+01+
*       7.6701771793E+01               0
GRID*                872               02.0000000000E+011.8764924017E+01+
*       7.0956480780E+01               0
GRID*                873               02.0000000000E+011.5594102884E+01+
*       6.5392986793E+01               0
GRID*                874               02.0000000000E+011.2478711675E+01+
*       5.9997379805E+01               0
GRID*                875               02.0000000000E+019.3987398605E+00+
*       5.4659525389E+01               0
GRID*                876               02.0000000000E+016.3382480374E+00+
*       4.9351310122E+01               0
GRID*                877               02.0000000000E+013.3143598086E+00+
*       4.4080357138E+01               0
GRID*                878               02.0000000000E+013.6370824539E-01+
*       3.8874792467E+01               0
GRID*                879               02.0000000000E+01-2.468715439E+00+
*       3.3787805920E+01               0
GRID*                880               02.0000000000E+016.6525005702E+01+
*       1.4478707744E+02               0
GRID*                881               02.0000000000E+016.3370411723E+01+
*       1.3956173674E+02               0
GRID*                882               02.0000000000E+016.0221953660E+01+
*       1.3433118146E+02               0
GRID*                883               02.0000000000E+015.7080333797E+01+
*       1.2910845332E+02               0
GRID*                884               02.0000000000E+015.3951250709E+01+
*       1.2389852433E+02               0
GRID*                885               02.0000000000E+015.0836096474E+01+
*       1.1869835488E+02               0
GRID*                886               02.0000000000E+014.7732265594E+01+
*       1.1350533395E+02               0
GRID*                887               02.0000000000E+014.4639224625E+01+
*       1.0832174363E+02               0
GRID*                888               02.0000000000E+014.1563563246E+01+
*       1.0315253575E+02               0
GRID*                889               02.0000000000E+013.8520679101E+01+
*       9.8000589955E+01               0
GRID*                890               02.0000000000E+013.5533823662E+01+
*       9.2864782298E+01               0
GRID*                891               02.0000000000E+013.2637972840E+01+
*       8.7744895129E+01               0
GRID*                892               02.0000000000E+012.9896568363E+01+
*       8.2643606847E+01               0
GRID*                893               02.0000000000E+012.7455070794E+01+
*       7.7498589598E+01               0
GRID*                894               02.0000000000E+012.5640903398E+01+
*       7.1166964250E+01               0
GRID*                895               02.0000000000E+012.1791206143E+01+
*       6.5254048693E+01               0
GRID*                896               02.0000000000E+011.8518234350E+01+
*       5.9854927855E+01               0
GRID*                897               02.0000000000E+011.5377756115E+01+
*       5.4510187845E+01               0
GRID*                898               02.0000000000E+011.2248618003E+01+
*       4.9190121952E+01               0
GRID*                899               02.0000000000E+019.1310194564E+00+
*       4.3937682623E+01               0
GRID*                900               02.0000000000E+016.0632716991E+00+
*       3.8779372053E+01               0
GRID*                901               02.0000000000E+013.0779922482E+00+
*       3.3743979909E+01               0
GRID*                902               02.0000000000E+012.0083463844E-01+
*       2.8898688131E+01               0
GRID*                903               02.0000000000E+012.6434311166E+00+
*       2.4005689126E+01               0
GRID*                904               02.0000000000E+014.9116193570E+00+
*       1.8925844571E+01               0
GRID*                905               02.0000000000E+016.8164266421E+00+
*       1.3889347271E+01               0
GRID*                906               02.0000000000E+017.8572973802E+01+
*       1.4479627829E+02               0
GRID*                907               02.0000000000E+017.5419046006E+01+
*       1.3956566130E+02               0
GRID*                908               02.0000000000E+017.2248625449E+01+
*       1.3425943318E+02               0
GRID*                909               02.0000000000E+016.8988623105E+01+
*       1.2894969223E+02               0
GRID*                910               02.0000000000E+016.5703884641E+01+
*       1.2372125390E+02               0
GRID*                911               02.0000000000E+016.2464438866E+01+
*       1.1855778646E+02               0
GRID*                912               02.0000000000E+015.9270509164E+01+
*       1.1341553976E+02               0
GRID*                913               02.0000000000E+015.6099947989E+01+
*       1.0827654276E+02               0
GRID*                914               02.0000000000E+015.2939515170E+01+
*       1.0315433914E+02               0
GRID*                915               02.0000000000E+014.9801439538E+01+
*       9.8070876796E+01               0
GRID*                916               02.0000000000E+014.6717347885E+01+
*       9.3032933343E+01               0
GRID*                917               02.0000000000E+014.3718802464E+01+
*       8.8028167222E+01               0
GRID*                918               02.0000000000E+014.0805310476E+01+
*       8.3030977620E+01               0
GRID*                919               02.0000000000E+013.7913006846E+01+
*       7.8090911692E+01               0
GRID*                920               02.0000000000E+013.4973823952E+01+
*       7.3445533975E+01               0
GRID*                921               02.0000000000E+013.1591350681E+01+
*       6.9241122941E+01               0
GRID*                922               02.0000000000E+012.7863704821E+01+
*       6.4743680650E+01               0
GRID*                923               02.0000000000E+012.4506124549E+01+
*       5.9681278362E+01               0
GRID*                924               02.0000000000E+012.1399800906E+01+
*       5.4404864643E+01               0
GRID*                925               02.0000000000E+011.8245425023E+01+
*       4.9013879270E+01               0
GRID*                926               02.0000000000E+011.5015366138E+01+
*       4.3708568482E+01               0
GRID*                927               02.0000000000E+011.1816927369E+01+
*       3.8552102631E+01               0
GRID*                928               02.0000000000E+018.6934252268E+00+
*       3.3531710037E+01               0
GRID*                929               02.0000000000E+015.6491800751E+00+
*       2.8657886597E+01               0
GRID*                930               02.0000000000E+013.8198609425E+01+
*       8.7923944579E+01               0
GRID*                931               02.0000000000E+013.0535787943E+01+
*       7.3921612424E+01               0
GRID*                932               02.0000000000E+013.2686709426E+01+
*       7.8072573188E+01               0
GRID*                933               02.0000000000E+013.5356013383E+01+
*       8.2911243599E+01               0
GRID*                934               02.0000000000E+014.1146378960E+01+
*       9.2985410241E+01               0
GRID*                935               02.0000000000E+014.4169095908E+01+
*       9.8069963837E+01               0
GRID*                936               02.0000000000E+014.7247449798E+01+
*       1.0318198925E+02               0
GRID*                937               02.0000000000E+015.0359228144E+01+
*       1.0832113347E+02               0
GRID*                938               02.0000000000E+015.3489435161E+01+
*       1.1347926783E+02               0
GRID*                939               02.0000000000E+015.6635519973E+01+
*       1.1864799711E+02               0
GRID*                940               02.0000000000E+015.9803685532E+01+
*       1.2382944585E+02               0
GRID*                941               02.0000000000E+016.2996601867E+01+
*       1.2903758688E+02               0
GRID*                942               02.0000000000E+016.6199028028E+01+
*       1.3428139662E+02               0
GRID*                943               02.0000000000E+016.9386047320E+01+
*       1.3954056046E+02               0
GRID*                944               02.0000000000E+017.2560610265E+01+
*       1.4478067431E+02               0
GRID*                945               02.0000000000E+014.3480838838E+01+
*       7.8097132063E+01               0
GRID*                946               02.0000000000E+014.6706176815E+01+
*       7.2680542705E+01               0
GRID*                947               02.0000000000E+014.8140985497E+01+
*       6.6486033346E+01               0
GRID*                948               02.0000000000E+014.9760286092E+01+
*       6.1178879599E+01               0
GRID*                949               02.0000000000E+015.1631891454E+01+
*       5.6212193978E+01               0
GRID*                950               02.0000000000E+015.4624572975E+01+
*       5.1083560749E+01               0
GRID*                951               02.0000000000E+011.0958814952E+01+
*       1.2674600836E+01               0
GRID*                952               02.0000000000E+011.4362098545E+01+
*       1.4617119124E+01               0
GRID*                953               02.0000000000E+011.5876310114E+01+
*       1.8465799065E+01               0
GRID*                954               02.0000000000E+011.9334063004E+01+
*       2.2405957434E+01               0
GRID*                955               02.0000000000E+012.2364623139E+01+
*       2.7450285518E+01               0
GRID*                956               02.0000000000E+012.5812729951E+01+
*       3.2084678339E+01               0
GRID*                957               02.0000000000E+012.9706118751E+01+
*       3.6912878537E+01               0
GRID*                958               02.0000000000E+013.4057071155E+01+
*       4.2153969599E+01               0
GRID*                959               02.0000000000E+013.8524270790E+01+
*       4.7501921294E+01               0
GRID*                960               02.0000000000E+014.2544287909E+01+
*       5.2348107345E+01               0
GRID*                961               02.0000000000E+014.6214110040E+01+
*       5.6876219372E+01               0
GRID*                962               02.0000000000E+014.8325716727E+01+
*       5.1626647624E+01               0
GRID*                963               02.0000000000E+012.4458211686E+01+
*       2.2813005093E+01               0
GRID*                964               02.0000000000E+011.9760227861E+01+
*       1.7583335290E+01               0
GRID*                965               02.0000000000E+012.2549303664E+01+
*       1.9500600936E+01               0
GRID*                966               02.0000000000E+011.7456918761E+01+
*       1.5376999583E+01               0
GRID*                967               02.0000000000E+013.1540760448E+01+
*       3.1054705126E+01               0
GRID*                968               02.0000000000E+012.7649076228E+01+
*       2.6766095988E+01               0
GRID*                969               02.0000000000E+013.6008529383E+01+
*       3.5694259528E+01               0
GRID*                970               02.0000000000E+014.1403406596E+01+
*       4.0908148806E+01               0
GRID*                971               02.0000000000E+015.0319987735E+01+
*       4.6344823345E+01               0
GRID*                972               02.0000000000E+014.4743791484E+01+
*       4.6942326800E+01               0
GRID*                973               02.0000000000E+014.7144527131E+01+
*       4.2635333378E+01               0
GRID*                974               02.0000000000E+014.2527792564E+01+
*       6.7601341015E+01               0
GRID*                975               02.0000000000E+013.6944527640E+01+
*       6.8386806654E+01               0
GRID*                976               02.0000000000E+014.0399297797E+01+
*       7.3055784253E+01               0
GRID*                977               02.0000000000E+011.1215544509E+01+
*       2.8299238330E+01               0
GRID*                978               02.0000000000E+011.3673215753E+01+
*       2.3071566392E+01               0
GRID*                979               02.0000000000E+011.0672803071E+01+
*       1.7864542721E+01               0
GRID*                980               02.0000000000E+018.1185369478E+00+
*       2.3483625531E+01               0
GRID*                981               02.0000000000E+011.4380840296E+01+
*       3.3192298908E+01               0
GRID*                982               02.0000000000E+011.6842872586E+01+
*       2.7859735090E+01               0
GRID*                983               02.0000000000E+011.7651395760E+01+
*       3.8205905999E+01               0
GRID*                984               02.0000000000E+012.0107543735E+01+
*       3.2738596005E+01               0
GRID*                985               02.0000000000E+012.1037759001E+01+
*       4.3410497482E+01               0
GRID*                986               02.0000000000E+012.7362566998E+01+
*       4.3013547704E+01               0
GRID*                987               02.0000000000E+012.3605019858E+01+
*       3.7715557977E+01               0
GRID*                988               02.0000000000E+012.4446664859E+01+
*       4.8923181680E+01               0
GRID*                989               02.0000000000E+013.1528611914E+01+
*       4.9229559799E+01               0
GRID*                990               02.0000000000E+012.7336764178E+01+
*       5.4510772579E+01               0
GRID*                991               02.0000000000E+013.2228142989E+01+
*       5.5170198463E+01               0
GRID*                992               02.0000000000E+013.6843060662E+01+
*       5.3512251869E+01               0
GRID*                993               02.0000000000E+013.5340655225E+01+
*       5.8804958256E+01               0
GRID*                994               02.0000000000E+013.8868848720E+01+
*       6.3096703605E+01               0
GRID*                995               02.0000000000E+014.0692074746E+01+
*       5.7806127315E+01               0
GRID*                996               02.0000000000E+014.4372774532E+01+
*       6.2173886115E+01               0
GRID*                997               02.0000000000E+013.0134977821E+01+
*       5.9470733097E+01               0
GRID*                998               02.0000000000E+013.3464984320E+01+
*       6.3957397328E+01               0
GRID*                999               02.0000000000E+018.4529718629E+01+
*       1.4476269768E+02               0
GRID*               1000               02.0000000000E+018.1391819803E+01+
*       1.3959954742E+02               0
GRID*               1001               02.0000000000E+017.8405807479E+01+
*       1.3425436700E+02               0
GRID*               1002               02.0000000000E+017.5166158651E+01+
*       1.2873316642E+02               0
GRID*               1003               02.0000000000E+017.1684154838E+01+
*       1.2340891362E+02               0
GRID*               1004               02.0000000000E+016.8312280846E+01+
*       1.1826480596E+02               0
GRID*               1005               02.0000000000E+016.5049384676E+01+
*       1.1317447706E+02               0
GRID*               1006               02.0000000000E+016.1842644273E+01+
*       1.0807182909E+02               0
GRID*               1007               02.0000000000E+015.8639001930E+01+
*       1.0296331219E+02               0
GRID*               1008               02.0000000000E+015.5432371037E+01+
*       9.7905438827E+01               0
GRID*               1009               02.0000000000E+015.2270690046E+01+
*       9.2925020590E+01               0
GRID*               1010               02.0000000000E+014.9211032545E+01+
*       8.8013332035E+01               0
GRID*               1011               02.0000000000E+014.6301714904E+01+
*       8.3125326197E+01               0
GRID*               1012               02.0000000000E+015.2126536244E+01+
*       7.0347572017E+01               0
GRID*               1013               02.0000000000E+015.7070808260E+01+
*       6.9029193193E+01               0
GRID*               1014               02.0000000000E+016.2172631545E+01+
*       6.7796064058E+01               0
GRID*               1015               02.0000000000E+016.7487576858E+01+
*       6.6475483300E+01               0
GRID*               1016               02.0000000000E+017.3101292510E+01+
*       6.4993556205E+01               0
GRID*               1017               02.0000000000E+016.0021566009E+01+
*       5.4016272468E+01               0
GRID*               1018               02.0000000000E+015.9522423902E+01+
*       5.9041049133E+01               0
GRID*               1019               02.0000000000E+015.8397054716E+01+
*       6.3978168372E+01               0
GRID*               1020               02.0000000000E+016.4336491233E+01+
*       5.7314332100E+01               0
GRID*               1021               02.0000000000E+016.3418476414E+01+
*       6.2591102407E+01               0
GRID*               1022               02.0000000000E+016.8635394474E+01+
*       6.0978923832E+01               0
GRID*               1023               02.0000000000E+015.6145395014E+01+
*       5.6198878565E+01               0
GRID*               1024               02.0000000000E+015.3395711874E+01+
*       6.5215593394E+01               0
GRID*               1025               02.0000000000E+015.4818118050E+01+
*       6.0304589845E+01               0
GRID*               1026               02.0000000000E+015.7855257291E+01+
*       9.2637942555E+01               0
GRID*               1027               02.0000000000E+016.0150839861E+01+
*       8.7388033865E+01               0
GRID*               1028               02.0000000000E+016.2270756722E+01+
*       8.2192722756E+01               0
GRID*               1029               02.0000000000E+016.4199159964E+01+
*       7.7040744986E+01               0
GRID*               1030               02.0000000000E+016.5947636968E+01+
*       7.1840643453E+01               0
GRID*               1031               02.0000000000E+015.6917865030E+01+
*       8.2819860035E+01               0
GRID*               1032               02.0000000000E+015.1656553008E+01+
*       8.3113884971E+01               0
GRID*               1033               02.0000000000E+015.4676049859E+01+
*       8.7804273307E+01               0
GRID*               1034               02.0000000000E+016.0654303702E+01+
*       7.2925968641E+01               0
GRID*               1035               02.0000000000E+015.8929295011E+01+
*       7.7895837881E+01               0
GRID*               1036               02.0000000000E+015.5699007915E+01+
*       7.3922866256E+01               0
GRID*               1037               02.0000000000E+015.3941167281E+01+
*       7.8486035114E+01               0
GRID*               1038               02.0000000000E+014.8959095851E+01+
*       7.8429010149E+01               0
GRID*               1039               02.0000000000E+015.1557851151E+01+
*       7.4802321551E+01               0
GRID*               1040               02.0000000000E+019.0397507479E+01+
*       1.4462456868E+02               0
GRID*               1041               02.0000000000E+018.7169014338E+01+
*       1.3954309116E+02               0
GRID*               1042               02.0000000000E+018.4281919790E+01+
*       1.3459867162E+02               0
GRID*               1043               02.0000000000E+018.2056077377E+01+
*       1.2849487062E+02               0
GRID*               1044               02.0000000000E+017.7846758471E+01+
*       1.2286948811E+02               0
GRID*               1045               02.0000000000E+017.4220436820E+01+
*       1.1777030795E+02               0
GRID*               1046               02.0000000000E+017.0852558650E+01+
*       1.1278513368E+02               0
GRID*               1047               02.0000000000E+016.7634952490E+01+
*       1.0776263328E+02               0
GRID*               1048               02.0000000000E+016.4431625943E+01+
*       1.0265218728E+02               0
GRID*               1049               02.0000000000E+016.1152493640E+01+
*       9.7563008930E+01               0
GRID*               1050               02.0000000000E+016.3553514927E+01+
*       9.2105368034E+01               0
GRID*               1051               02.0000000000E+016.5748625041E+01+
*       8.6649688262E+01               0
GRID*               1052               02.0000000000E+016.7746769711E+01+
*       8.1309777808E+01               0
GRID*               1053               02.0000000000E+016.9637731769E+01+
*       7.6075671514E+01               0
GRID*               1054               02.0000000000E+017.1528474878E+01+
*       7.0738362758E+01               0
GRID*               1055               02.0000000000E+017.3208654604E+01+
*       8.0307531339E+01               0
GRID*               1056               02.0000000000E+017.8425111804E+01+
*       7.9268362191E+01               0
GRID*               1057               02.0000000000E+018.3319847185E+01+
*       7.7829041604E+01               0
GRID*               1058               02.0000000000E+018.8387774774E+01+
*       7.5913319961E+01               0
GRID*               1059               02.0000000000E+018.3819810214E+01+
*       7.2635521710E+01               0
GRID*               1060               02.0000000000E+017.5098904647E+01+
*       7.5235943656E+01               0
GRID*               1061               02.0000000000E+017.9771268087E+01+
*       7.5025190522E+01               0
GRID*               1062               02.0000000000E+017.8021726110E+01+
*       6.9779291048E+01               0
GRID*               1063               02.0000000000E+017.0343756172E+01+
*       1.0232487054E+02               0
GRID*               1064               02.0000000000E+017.3696012680E+01+
*       9.6453183917E+01               0
GRID*               1065               02.0000000000E+017.5235429276E+01+
*       8.9946438150E+01               0
GRID*               1066               02.0000000000E+017.6847461930E+01+
*       8.4393612143E+01               0
GRID*               1067               02.0000000000E+016.9430123840E+01+
*       9.1289583195E+01               0
GRID*               1068               02.0000000000E+017.1372588998E+01+
*       8.5637045256E+01               0
GRID*               1069               02.0000000000E+016.7080150786E+01+
*       9.7061563717E+01               0
GRID*               1070               02.0000000000E+017.3391392111E+01+
*       1.0739373650E+02               0
GRID*               1071               02.0000000000E+017.6037888263E+01+
*       1.0229647134E+02               0
GRID*               1072               02.0000000000E+017.8672675254E+01+
*       9.8404863308E+01               0
GRID*               1073               02.0000000000E+017.9322014253E+01+
*       9.3770697801E+01               0
GRID*               1074               02.0000000000E+018.0683837285E+01+
*       8.8333784222E+01               0
GRID*               1075               02.0000000000E+018.2107562855E+01+
*       8.2958010736E+01               0
GRID*               1076               02.0000000000E+017.6620698193E+01+
*       1.1220844008E+02               0
GRID*               1077               02.0000000000E+017.8943971688E+01+
*       1.0689724673E+02               0
GRID*               1078               02.0000000000E+018.1143195276E+01+
*       1.0201840410E+02               0
GRID*               1079               02.0000000000E+018.2910045907E+01+
*       9.7323659454E+01               0
GRID*               1080               02.0000000000E+018.4504705459E+01+
*       9.2246259245E+01               0
GRID*               1081               02.0000000000E+018.6052236507E+01+
*       8.6735171907E+01               0
GRID*               1082               02.0000000000E+018.7312814669E+01+
*       8.1277455562E+01               0
GRID*               1083               02.0000000000E+018.4267060247E+01+
*       1.0611696317E+02               0
GRID*               1084               02.0000000000E+018.9485363413E+01+
*       1.0503898037E+02               0
GRID*               1085               02.0000000000E+019.4808737007E+01+
*       1.0371213090E+02               0
GRID*               1086               02.0000000000E+019.0956423380E+01+
*       1.0005997073E+02               0
GRID*               1087               02.0000000000E+018.7796857475E+01+
*       9.6302742375E+01               0
GRID*               1088               02.0000000000E+018.6095555720E+01+
*       1.0113369093E+02               0
GRID*               1089               02.0000000000E+019.0422996056E+01+
*       9.0941180939E+01               0
GRID*               1090               02.0000000000E+019.1332186009E+01+
*       8.4785093293E+01               0
GRID*               1091               02.0000000000E+019.2699248609E+01+
*       7.9479043560E+01               0
GRID*               1092               02.0000000000E+019.5560806367E+01+
*       9.8450059256E+01               0
GRID*               1093               02.0000000000E+019.2088352382E+01+
*       9.5839237298E+01               0
GRID*               1094               02.0000000000E+019.5632728199E+01+
*       9.3148673535E+01               0
GRID*               1095               02.0000000000E+019.5559190972E+01+
*       8.7614167012E+01               0
GRID*               1096               02.0000000000E+019.5833410495E+01+
*       8.2898057242E+01               0
GRID*               1097               02.0000000000E+018.0146002748E+01+
*       1.1698986789E+02               0
GRID*               1098               02.0000000000E+018.2285008071E+01+
*       1.1138237533E+02               0
GRID*               1099               02.0000000000E+018.4024479291E+01+
*       1.2184118672E+02               0
GRID*               1100               02.0000000000E+018.5997079037E+01+
*       1.1587383235E+02               0
GRID*               1101               02.0000000000E+018.7779409005E+01+
*       1.1026471399E+02               0
GRID*               1102               02.0000000000E+019.1487624851E+01+
*       1.1425644282E+02               0
GRID*               1103               02.0000000000E+019.5600613928E+01+
*       1.1740956834E+02               0
GRID*               1104               02.0000000000E+019.5971806245E+01+
*       1.1262530647E+02               0
GRID*               1105               02.0000000000E+019.3160973714E+01+
*       1.0897903805E+02               0
GRID*               1106               02.0000000000E+019.0385489044E+01+
*       1.2062662560E+02               0
GRID*               1107               02.0000000000E+019.5648964718E+01+
*       1.2303760663E+02               0
GRID*               1108               02.0000000000E+018.7816729888E+01+
*       1.2627537739E+02               0
GRID*               1109               02.0000000000E+019.1141706923E+01+
*       1.2988629630E+02               0
GRID*               1110               02.0000000000E+019.4822549437E+01+
*       1.3361165926E+02               0
GRID*               1111               02.0000000000E+019.2141642314E+01+
*       1.2572239308E+02               0
GRID*               1112               02.0000000000E+019.5605290269E+01+
*       1.2836726134E+02               0
GRID*               1113               02.0000000000E+018.9555193527E+01+
*       1.3457252836E+02               0
GRID*               1114               02.0000000000E+018.7057874330E+01+
*       1.3078979344E+02               0
GRID*               1115               02.0000000000E+019.2929290809E+01+
*       1.3912144731E+02               0
GRID*               1116               02.0000000000E+019.6019406001E+01+
*       1.4434733457E+02               0
GRID*               1117               02.0000000000E+011.5831402931E+01+
*       1.0083374211E+01               0
GRID*               1118               02.0000000000E+012.2612467323E+01+
*       1.3397292650E+01               0
GRID*               1119               02.0000000000E+01-9.480893543E+01+
*       -5.647716197E+01               0
GRID*               1120               02.0000000000E+01-8.968663627E+01+
*       -5.291698350E+01               0
GRID*               1121               02.0000000000E+01-8.466022062E+01+
*       -4.935748687E+01               0
GRID*               1122               02.0000000000E+01-7.973875413E+01+
*       -4.584208870E+01               0
GRID*               1123               02.0000000000E+01-7.490946443E+01+
*       -4.238624453E+01               0
GRID*               1124               02.0000000000E+01-7.014041006E+01+
*       -3.897814064E+01               0
GRID*               1125               02.0000000000E+01-6.537166623E+01+
*       -3.558066022E+01               0
GRID*               1126               02.0000000000E+01-6.058178829E+01+
*       -3.212066898E+01               0
GRID*               1127               02.0000000000E+01-5.585104544E+01+
*       -2.863902363E+01               0
GRID*               1128               02.0000000000E+01-5.115400822E+01+
*       -2.538796084E+01               0
GRID*               1129               02.0000000000E+01-4.535565429E+01+
*       -2.260272939E+01               0
GRID*               1130               02.0000000000E+01-4.037032110E+01+
*       -1.818910441E+01               0
GRID*               1131               02.0000000000E+01-3.618682276E+01+
*       -1.514806556E+01               0
GRID*               1132               02.0000000000E+01-3.266057712E+01+
*       -1.262875389E+01               0
GRID*               1133               02.0000000000E+01-3.012509906E+01+
*       -1.147710748E+01               0
GRID*               1134               02.0000000000E+01-2.816158400E+01+
*       -1.103289871E+01               0
GRID*               1135               02.0000000000E+01-2.619040711E+01+
*       -1.002586056E+01               0
GRID*               1136               02.0000000000E+01-2.454531325E+01+
*       -8.880294486E+00               0
GRID*               1137               02.0000000000E+01-2.328678288E+01+
*       -7.703125323E+00               0
GRID*               1138               02.0000000000E+01-6.662672769E+01+
*       -1.447569577E+02               0
GRID*               1139               02.0000000000E+01-6.358614764E+01+
*       -1.394817876E+02               0
GRID*               1140               02.0000000000E+01-6.056000462E+01+
*       -1.341717656E+02               0
GRID*               1141               02.0000000000E+01-5.754213991E+01+
*       -1.288423358E+02               0
GRID*               1142               02.0000000000E+01-5.454989198E+01+
*       -1.235095556E+02               0
GRID*               1143               02.0000000000E+01-5.161481710E+01+
*       -1.181837477E+02               0
GRID*               1144               02.0000000000E+01-4.874968314E+01+
*       -1.128921296E+02               0
GRID*               1145               02.0000000000E+01-4.597678641E+01+
*       -1.076719705E+02               0
GRID*               1146               02.0000000000E+01-4.334297212E+01+
*       -1.025511893E+02               0
GRID*               1147               02.0000000000E+01-4.089161945E+01+
*       -9.743610074E+01               0
GRID*               1148               02.0000000000E+01-3.849765493E+01+
*       -9.214550897E+01               0
GRID*               1149               02.0000000000E+01-3.594006397E+01+
*       -8.664633022E+01               0
GRID*               1150               02.0000000000E+01-3.318555915E+01+
*       -8.103630371E+01               0
GRID*               1151               02.0000000000E+01-3.028508571E+01+
*       -7.536906601E+01               0
GRID*               1152               02.0000000000E+01-2.727287967E+01+
*       -6.972469727E+01               0
GRID*               1153               02.0000000000E+01-2.429755206E+01+
*       -6.423922501E+01               0
GRID*               1154               02.0000000000E+01-2.165065818E+01+
*       -5.888110568E+01               0
GRID*               1155               02.0000000000E+01-1.970012834E+01+
*       -5.242085667E+01               0
GRID*               1156               02.0000000000E+01-1.581672689E+01+
*       -4.647028660E+01               0
GRID*               1157               02.0000000000E+01-1.258294098E+01+
*       -4.107938465E+01               0
GRID*               1158               02.0000000000E+01-9.543178424E+00+
*       -3.578264743E+01               0
GRID*               1159               02.0000000000E+01-6.611978588E+00+
*       -3.055551752E+01               0
GRID*               1160               02.0000000000E+01-3.827723336E+00+
*       -2.539245909E+01               0
GRID*               1161               02.0000000000E+01-1.179967260E+00+
*       -2.016763962E+01               0
GRID*               1162               02.0000000000E+011.5761455125E+00+
*       -1.494269136E+01               0
GRID*               1163               02.0000000000E+019.4843036861E+01+
*       -5.673533551E+01               0
GRID*               1164               02.0000000000E+018.9648067974E+01+
*       -5.346614521E+01               0
GRID*               1165               02.0000000000E+018.4440157783E+01+
*       -5.014597957E+01               0
GRID*               1166               02.0000000000E+017.9357227030E+01+
*       -4.672334808E+01               0
GRID*               1167               02.0000000000E+017.4624399284E+01+
*       -4.326770826E+01               0
GRID*               1168               02.0000000000E+017.0275792815E+01+
*       -3.984344013E+01               0
GRID*               1169               02.0000000000E+016.5801770259E+01+
*       -3.524466697E+01               0
GRID*               1170               02.0000000000E+015.9631346333E+01+
*       -3.194623393E+01               0
GRID*               1171               02.0000000000E+015.4339088470E+01+
*       -2.885848672E+01               0
GRID*               1172               02.0000000000E+014.9630307522E+01+
*       -2.584896624E+01               0
GRID*               1173               02.0000000000E+014.5328333791E+01+
*       -2.244267979E+01               0
GRID*               1174               02.0000000000E+014.0393140939E+01+
*       -1.837193532E+01               0
GRID*               1175               02.0000000000E+013.5434075522E+01+
*       -1.659176367E+01               0
GRID*               1176               02.0000000000E+013.2152353492E+01+
*       -1.440994310E+01               0
GRID*               1177               02.0000000000E+012.9664529640E+01+
*       -1.224036978E+01               0
GRID*               1178               02.0000000000E+012.7624547709E+01+
*       -1.038132076E+01               0
GRID*               1179               02.0000000000E+012.5158068440E+01+
*       -9.430911042E+00               0
GRID*               1180               02.0000000000E+012.4006711873E+01+
*       -7.758709247E+00               0
GRID*               1181               02.0000000000E+012.2856340405E+01+
*       -7.386241440E+00               0
GRID*               1182               02.0000000000E+012.3541957727E+01+
*       -6.900444968E+00               0
GRID*               1183               02.0000000000E+013.2321825016E+01+
*       -1.083570386E+01               0
GRID*               1184               02.0000000000E+012.5586563803E+01+
*       -6.255937898E+00               0
GRID*               1185               02.0000000000E+012.5474563154E+01+
*       -7.507909493E+00               0
GRID*               1186               02.0000000000E+012.4505478641E+01+
*       -6.691366739E+00               0
GRID*               1187               02.0000000000E+012.9856723815E+01+
*       -9.677727180E+00               0
GRID*               1188               02.0000000000E+012.9708723636E+01+
*       -7.738631404E+00               0
GRID*               1189               02.0000000000E+013.1413862077E+01+
*       -8.360006924E+00               0
GRID*               1190               02.0000000000E+012.6922849158E+01+
*       -8.264315958E+00               0
GRID*               1191               02.0000000000E+012.8455320533E+01+
*       -8.584592386E+00               0
GRID*               1192               02.0000000000E+012.6526232585E+01+
*       -5.672485610E+00               0
GRID*               1193               02.0000000000E+012.6660738112E+01+
*       -6.781039468E+00               0
GRID*               1194               02.0000000000E+012.7386571551E+01+
*       -6.010532982E+00               0
GRID*               1195               02.0000000000E+012.8130669136E+01+
*       -7.014729573E+00               0
GRID*               1196               02.0000000000E+019.4825447124E+01+
*       -5.075522910E+01               0
GRID*               1197               02.0000000000E+019.4819274178E+01+
*       -4.480576210E+01               0
GRID*               1198               02.0000000000E+018.9649777981E+01+
*       -4.751982412E+01               0
GRID*               1199               02.0000000000E+018.9662028224E+01+
*       -4.165843909E+01               0
GRID*               1200               02.0000000000E+013.5072602277E+01+
*       -1.276304807E+01               0
GRID*               1201               02.0000000000E+013.7885487122E+01+
*       -1.416469468E+01               0
GRID*               1202               02.0000000000E+018.4539766607E+01+
*       -4.428280239E+01               0
GRID*               1203               02.0000000000E+014.9840081898E+01+
*       -2.119464604E+01               0
GRID*               1204               02.0000000000E+018.4590846466E+01+
*       -3.857567041E+01               0
GRID*               1205               02.0000000000E+015.4086016258E+01+
*       -2.327943205E+01               0
GRID*               1206               02.0000000000E+017.9622193159E+01+
*       -4.107696002E+01               0
GRID*               1207               02.0000000000E+017.9685286948E+01+
*       -3.562261315E+01               0
GRID*               1208               02.0000000000E+017.4986706998E+01+
*       -3.294588348E+01               0
GRID*               1209               02.0000000000E+017.0078047270E+01+
*       -3.080150932E+01               0
GRID*               1210               02.0000000000E+016.4614350910E+01+
*       -2.857927957E+01               0
GRID*               1211               02.0000000000E+015.9159879871E+01+
*       -2.588531244E+01               0
GRID*               1212               02.0000000000E+017.1315159328E+01+
*       -3.537911213E+01               0
GRID*               1213               02.0000000000E+017.5077300706E+01+
*       -3.801004131E+01               0
GRID*               1214               02.0000000000E+012.0541637930E+01+
*       -1.088694912E+01               0
GRID*               1215               02.0000000000E+012.3650444795E+01+
*       -1.151284624E+01               0
GRID*               1216               02.0000000000E+012.5468671792E+01+
*       -1.386798011E+01               0
GRID*               1217               02.0000000000E+012.8551126498E+01+
*       -1.551744179E+01               0
GRID*               1218               02.0000000000E+013.1795553798E+01+
*       -1.841805001E+01               0
GRID*               1219               02.0000000000E+013.5649665558E+01+
*       -2.152529793E+01               0
GRID*               1220               02.0000000000E+014.0399762396E+01+
*       -2.470657194E+01               0
GRID*               1221               02.0000000000E+014.4937407511E+01+
*       -2.793308151E+01               0
GRID*               1222               02.0000000000E+014.9391061935E+01+
*       -3.140257894E+01               0
GRID*               1223               02.0000000000E+015.4409172020E+01+
*       -3.487056615E+01               0
GRID*               1224               02.0000000000E+015.9867147683E+01+
*       -3.834873752E+01               0
GRID*               1225               02.0000000000E+016.5161100449E+01+
*       -4.174019569E+01               0
GRID*               1226               02.0000000000E+016.9625319889E+01+
*       -4.510813250E+01               0
GRID*               1227               02.0000000000E+017.3980796635E+01+
*       -4.889824045E+01               0
GRID*               1228               02.0000000000E+017.9036263533E+01+
*       -5.273981190E+01               0
GRID*               1229               02.0000000000E+018.4408254881E+01+
*       -5.619853765E+01               0
GRID*               1230               02.0000000000E+018.9679681420E+01+
*       -5.948629233E+01               0
GRID*               1231               02.0000000000E+019.4865366089E+01+
*       -6.273812448E+01               0
GRID*               1232               02.0000000000E+01-6.650623443E+00+
*       -4.116792581E+01               0
GRID*               1233               02.0000000000E+01-3.669688182E+00+
*       -4.655923249E+01               0
GRID*               1234               02.0000000000E+01-6.230393677E-01+
*       -5.190608758E+01               0
GRID*               1235               02.0000000000E+012.4500617431E+00+
*       -5.718139258E+01               0
GRID*               1236               02.0000000000E+015.5261459879E+00+
*       -6.239767383E+01               0
GRID*               1237               02.0000000000E+018.5975678789E+00+
*       -6.757592973E+01               0
GRID*               1238               02.0000000000E+011.1663240981E+01+
*       -7.273262443E+01               0
GRID*               1239               02.0000000000E+011.4723969129E+01+
*       -7.787845905E+01               0
GRID*               1240               02.0000000000E+011.7781236140E+01+
*       -8.301952794E+01               0
GRID*               1241               02.0000000000E+012.0835637552E+01+
*       -8.815862608E+01               0
GRID*               1242               02.0000000000E+012.3888441721E+01+
*       -9.329682984E+01               0
GRID*               1243               02.0000000000E+012.6940360897E+01+
*       -9.843386739E+01               0
GRID*               1244               02.0000000000E+012.9992125964E+01+
*       -1.035702596E+02               0
GRID*               1245               02.0000000000E+013.3044799978E+01+
*       -1.087072786E+02               0
GRID*               1246               02.0000000000E+013.6098972364E+01+
*       -1.138459832E+02               0
GRID*               1247               02.0000000000E+013.9156005758E+01+
*       -1.189892768E+02               0
GRID*               1248               02.0000000000E+014.2216841471E+01+
*       -1.241400236E+02               0
GRID*               1249               02.0000000000E+014.5281346317E+01+
*       -1.292987111E+02               0
GRID*               1250               02.0000000000E+014.8349100682E+01+
*       -1.344645065E+02               0
GRID*               1251               02.0000000000E+015.1420003811E+01+
*       -1.396363333E+02               0
GRID*               1252               02.0000000000E+015.4495098407E+01+
*       -1.448143426E+02               0
GRID*               1253               02.0000000000E+01-2.415775783E+01+
*       -7.477710259E+01               0
GRID*               1254               02.0000000000E+01-2.102871259E+01+
*       -7.974377377E+01               0
GRID*               1255               02.0000000000E+01-1.792665632E+01+
*       -8.467590146E+01               0
GRID*               1256               02.0000000000E+01-1.485178190E+01+
*       -8.959766552E+01               0
GRID*               1257               02.0000000000E+01-1.180303317E+01+
*       -9.453797813E+01               0
GRID*               1258               02.0000000000E+01-8.778420634E+00+
*       -9.949867927E+01               0
GRID*               1259               02.0000000000E+01-5.776814533E+00+
*       -1.044701951E+02               0
GRID*               1260               02.0000000000E+01-2.792083839E+00+
*       -1.094572996E+02               0
GRID*               1261               02.0000000000E+011.8113334844E-01+
*       -1.144661357E+02               0
GRID*               1262               02.0000000000E+013.1524130608E+00+
*       -1.195020732E+02               0
GRID*               1263               02.0000000000E+016.1329518370E+00+
*       -1.245576451E+02               0
GRID*               1264               02.0000000000E+019.1264988932E+00+
*       -1.296249183E+02               0
GRID*               1265               02.0000000000E+011.2132194346E+01+
*       -1.347025890E+02               0
GRID*               1266               02.0000000000E+011.5148673343E+01+
*       -1.397892568E+02               0
GRID*               1267               02.0000000000E+011.8175206880E+01+
*       -1.448872180E+02               0
GRID*               1268               02.0000000000E+01-3.521971479E+01+
*       -9.664685118E+01               0
GRID*               1269               02.0000000000E+01-3.205612653E+01+
*       -1.012683041E+02               0
GRID*               1270               02.0000000000E+01-2.888852988E+01+
*       -1.059749249E+02               0
GRID*               1271               02.0000000000E+01-2.568524154E+01+
*       -1.106411913E+02               0
GRID*               1272               02.0000000000E+01-2.257380936E+01+
*       -1.150667899E+02               0
GRID*               1273               02.0000000000E+01-1.990366908E+01+
*       -1.195225708E+02               0
GRID*               1274               02.0000000000E+01-1.743833038E+01+
*       -1.244026047E+02               0
GRID*               1275               02.0000000000E+01-1.475031712E+01+
*       -1.295156864E+02               0
GRID*               1276               02.0000000000E+01-1.190707173E+01+
*       -1.346630929E+02               0
GRID*               1277               02.0000000000E+01-8.982808013E+00+
*       -1.397967054E+02               0
GRID*               1278               02.0000000000E+01-6.017249752E+00+
*       -1.449071945E+02               0
GRID*               1279               02.0000000000E+01-4.579776461E+01+
*       -1.178894023E+02               0
GRID*               1280               02.0000000000E+01-4.268579064E+01+
*       -1.230683757E+02               0
GRID*               1281               02.0000000000E+01-3.949871954E+01+
*       -1.284427728E+02               0
GRID*               1282               02.0000000000E+01-3.636886697E+01+
*       -1.339232978E+02               0
GRID*               1283               02.0000000000E+01-3.331261230E+01+
*       -1.393680690E+02               0
GRID*               1284               02.0000000000E+01-3.028360498E+01+
*       -1.447231041E+02               0
GRID*               1285               02.0000000000E+01-5.459866741E+01+
*       -1.340707287E+02               0
GRID*               1286               02.0000000000E+01-5.158865423E+01+
*       -1.393507737E+02               0
GRID*               1287               02.0000000000E+01-4.853323485E+01+
*       -1.446675227E+02               0
GRID*               1288               02.0000000000E+01-6.060172722E+01+
*       -1.447202446E+02               0
GRID*               1289               02.0000000000E+01-5.456930332E+01+
*       -1.446900937E+02               0
GRID*               1290               02.0000000000E+01-5.758354397E+01+
*       -1.394144721E+02               0
GRID*               1291               02.0000000000E+01-4.246979337E+01+
*       -1.446636892E+02               0
GRID*               1292               02.0000000000E+01-3.637576425E+01+
*       -1.446799837E+02               0
GRID*               1293               02.0000000000E+01-4.865635879E+01+
*       -1.233161919E+02               0
GRID*               1294               02.0000000000E+01-5.160256118E+01+
*       -1.287129598E+02               0
GRID*               1295               02.0000000000E+01-4.554151495E+01+
*       -1.393170525E+02               0
GRID*               1296               02.0000000000E+01-3.943618184E+01+
*       -1.393146960E+02               0
GRID*               1297               02.0000000000E+01-4.858865587E+01+
*       -1.339892545E+02               0
GRID*               1298               02.0000000000E+01-4.251205540E+01+
*       -1.339270111E+02               0
GRID*               1299               02.0000000000E+01-4.559051672E+01+
*       -1.285760649E+02               0
GRID*               1300               02.0000000000E+01-2.419607337E+01+
*       -1.447821215E+02               0
GRID*               1301               02.0000000000E+01-1.812299665E+01+
*       -1.448382346E+02               0
GRID*               1302               02.0000000000E+01-1.206335025E+01+
*       -1.448780320E+02               0
GRID*               1303               02.0000000000E+01-4.299830164E+01+
*       -1.125011059E+02               0
GRID*               1304               02.0000000000E+01-3.982159730E+01+
*       -1.175073073E+02               0
GRID*               1305               02.0000000000E+01-3.640902388E+01+
*       -1.227642110E+02               0
GRID*               1306               02.0000000000E+01-3.310493457E+01+
*       -1.283892067E+02               0
GRID*               1307               02.0000000000E+01-3.011144280E+01+
*       -1.340368761E+02               0
GRID*               1308               02.0000000000E+01-2.715772390E+01+
*       -1.394725507E+02               0
GRID*               1309               02.0000000000E+01-3.460974169E+01+
*       -1.065860054E+02               0
GRID*               1310               02.0000000000E+01-4.031817674E+01+
*       -1.071917461E+02               0
GRID*               1311               02.0000000000E+01-3.774148927E+01+
*       -1.019513117E+02               0
GRID*               1312               02.0000000000E+01-2.106517326E+01+
*       -1.396074438E+02               0
GRID*               1313               02.0000000000E+01-1.789711542E+01+
*       -1.345058593E+02               0
GRID*               1314               02.0000000000E+01-1.500252357E+01+
*       -1.397122229E+02               0
GRID*               1315               02.0000000000E+01-3.714313065E+01+
*       -1.119936286E+02               0
GRID*               1316               02.0000000000E+01-3.131958195E+01+
*       -1.113251143E+02               0
GRID*               1317               02.0000000000E+01-2.393552487E+01+
*       -1.342659068E+02               0
GRID*               1318               02.0000000000E+01-2.063482231E+01+
*       -1.292160348E+02               0
GRID*               1319               02.0000000000E+01-3.367264428E+01+
*       -1.169233261E+02               0
GRID*               1320               02.0000000000E+01-2.668882689E+01+
*       -1.287067369E+02               0
GRID*               1321               02.0000000000E+01-2.783913585E+01+
*       -1.158669452E+02               0
GRID*               1322               02.0000000000E+01-2.304359496E+01+
*       -1.239028537E+02               0
GRID*               1323               02.0000000000E+01-2.447140289E+01+
*       -1.192763135E+02               0
GRID*               1324               02.0000000000E+01-2.931759814E+01+
*       -1.222634072E+02               0
GRID*               1325               02.0000000000E+01-1.165915644E+01+
*       -1.245739939E+02               0
GRID*               1326               02.0000000000E+01-5.781894690E+00+
*       -1.246218309E+02               0
GRID*               1327               02.0000000000E+011.5861008826E-01+
*       -1.246034088E+02               0
GRID*               1328               02.0000000000E+016.0762516189E+00+
*       -1.449142229E+02               0
GRID*               1329               02.0000000000E+019.1100217700E+00+
*       -1.398160610E+02               0
GRID*               1330               02.0000000000E+011.2125112742E+01+
*       -1.449007395E+02               0
GRID*               1331               02.0000000000E+01-2.955100256E+00+
*       -1.398281292E+02               0
GRID*               1332               02.0000000000E+013.0752913496E+00+
*       -1.398307468E+02               0
GRID*               1333               02.0000000000E+013.0107293874E-02+
*       -1.449125368E+02               0
GRID*               1334               02.0000000000E+016.1077970029E+00+
*       -1.347356083E+02               0
GRID*               1335               02.0000000000E+013.1232764250E+00+
*       -1.296618390E+02               0
GRID*               1336               02.0000000000E+019.2937662017E-02+
*       -1.347476961E+02               0
GRID*               1337               02.0000000000E+01-2.859761788E+00+
*       -1.296694377E+02               0
GRID*               1338               02.0000000000E+01-5.906519329E+00+
*       -1.347232639E+02               0
GRID*               1339               02.0000000000E+01-8.808861615E+00+
*       -1.296231699E+02               0
GRID*               1340               02.0000000000E+01-3.261107175E+01+
*       -9.130169335E+01               0
GRID*               1341               02.0000000000E+01-2.940777619E+01+
*       -9.597802964E+01               0
GRID*               1342               02.0000000000E+01-2.626340934E+01+
*       -1.007078962E+02               0
GRID*               1343               02.0000000000E+01-2.314326792E+01+
*       -1.054553695E+02               0
GRID*               1344               02.0000000000E+01-2.008361734E+01+
*       -1.101527045E+02               0
GRID*               1345               02.0000000000E+01-1.717519379E+01+
*       -1.148228374E+02               0
GRID*               1346               02.0000000000E+01-1.440531635E+01+
*       -1.196034592E+02               0
GRID*               1347               02.0000000000E+01-1.152197853E+01+
*       -1.146846867E+02               0
GRID*               1348               02.0000000000E+01-8.654054499E+00+
*       -1.096246824E+02               0
GRID*               1349               02.0000000000E+01-8.648980967E+00+
*       -1.196042487E+02               0
GRID*               1350               02.0000000000E+01-2.778094666E+00+
*       -1.195608375E+02               0
GRID*               1351               02.0000000000E+01-5.703259351E+00+
*       -1.145656131E+02               0
GRID*               1352               02.0000000000E+01-1.768649110E+01+
*       -9.492523560E+01               0
GRID*               1353               02.0000000000E+01-2.354812941E+01+
*       -9.541082830E+01               0
GRID*               1354               02.0000000000E+01-2.707126690E+01+
*       -8.032693833E+01               0
GRID*               1355               02.0000000000E+01-2.989843196E+01+
*       -8.585480673E+01               0
GRID*               1356               02.0000000000E+01-2.668753632E+01+
*       -9.063539053E+01               0
GRID*               1357               02.0000000000E+01-2.076502841E+01+
*       -9.007832590E+01               0
GRID*               1358               02.0000000000E+01-2.389821438E+01+
*       -8.522587029E+01               0
GRID*               1359               02.0000000000E+01-1.162425391E+01+
*       -1.047123291E+02               0
GRID*               1360               02.0000000000E+01-1.463280328E+01+
*       -9.981987444E+01               0
GRID*               1361               02.0000000000E+01-2.044908668E+01+
*       -1.002296556E+02               0
GRID*               1362               02.0000000000E+01-1.441504193E+01+
*       -1.098405516E+02               0
GRID*               1363               02.0000000000E+01-1.739009140E+01+
*       -1.050397513E+02               0
GRID*               1364               02.0000000000E+011.4868660828E+01+
*       -8.832068466E+01               0
GRID*               1365               02.0000000000E+018.9081927296E+00+
*       -8.849934304E+01               0
GRID*               1366               02.0000000000E+012.9544262826E+00+
*       -8.870304759E+01               0
GRID*               1367               02.0000000000E+01-2.990412575E+00+
*       -8.894417170E+01               0
GRID*               1368               02.0000000000E+01-8.924950774E+00+
*       -8.924377223E+01               0
GRID*               1369               02.0000000000E+01-6.651382910E+00+
*       -5.204733984E+01               0
GRID*               1370               02.0000000000E+01-9.602936080E+00+
*       -5.765010963E+01               0
GRID*               1371               02.0000000000E+01-1.246199889E+01+
*       -6.326637287E+01               0
GRID*               1372               02.0000000000E+01-1.528612434E+01+
*       -6.880145816E+01               0
GRID*               1373               02.0000000000E+01-1.815337910E+01+
*       -7.428359562E+01               0
GRID*               1374               02.0000000000E+01-2.126719880E+01+
*       -6.926325303E+01               0
GRID*               1375               02.0000000000E+01-1.846046278E+01+
*       -6.375331627E+01               0
GRID*               1376               02.0000000000E+01-1.577806619E+01+
*       -5.805453694E+01               0
GRID*               1377               02.0000000000E+01-1.285356576E+01+
*       -5.220276949E+01               0
GRID*               1378               02.0000000000E+01-9.700595282E+00+
*       -4.658127079E+01               0
GRID*               1379               02.0000000000E+01-6.446051337E+00+
*       -6.290283966E+01               0
GRID*               1380               02.0000000000E+01-3.336506244E+00+
*       -6.806918802E+01               0
GRID*               1381               02.0000000000E+01-2.555630917E-01+
*       -7.319451354E+01               0
GRID*               1382               02.0000000000E+012.8092671547E+00+
*       -7.830072733E+01               0
GRID*               1383               02.0000000000E+015.8619590939E+00+
*       -8.340171747E+01               0
GRID*               1384               02.0000000000E+01-1.218372059E+01+
*       -7.385133020E+01               0
GRID*               1385               02.0000000000E+01-9.100015528E+00+
*       -7.888508989E+01               0
GRID*               1386               02.0000000000E+01-6.037422049E+00+
*       -8.391835481E+01               0
GRID*               1387               02.0000000000E+01-1.198294262E+01+
*       -8.426813164E+01               0
GRID*               1388               02.0000000000E+01-1.506490344E+01+
*       -7.928856056E+01               0
GRID*               1389               02.0000000000E+01-9.323248892E+00+
*       -6.839886217E+01               0
GRID*               1390               02.0000000000E+01-9.140716660E-02+
*       -8.363973362E+01               0
GRID*               1391               02.0000000000E+01-3.149187126E+00+
*       -7.857307271E+01               0
GRID*               1392               02.0000000000E+01-6.226413771E+00+
*       -7.349800894E+01               0
GRID*               1393               02.0000000000E+01-3.551354188E+00+
*       -5.738667759E+01               0
GRID*               1394               02.0000000000E+011.1818066220E+01+
*       -8.319971082E+01               0
GRID*               1395               02.0000000000E+01-4.532012863E-01+
*       -6.262441153E+01               0
GRID*               1396               02.0000000000E+018.7634379721E+00+
*       -7.807743616E+01               0
GRID*               1397               02.0000000000E+015.7019583925E+00+
*       -7.294841525E+01               0
GRID*               1398               02.0000000000E+012.6296054552E+00+
*       -6.780253772E+01               0
GRID*               1399               02.0000000000E+011.8160313359E+01+
*       -1.346567533E+02               0
GRID*               1400               02.0000000000E+012.1160089296E+01+
*       -1.295062159E+02               0
GRID*               1401               02.0000000000E+012.4148246363E+01+
*       -1.243363797E+02               0
GRID*               1402               02.0000000000E+012.7125195683E+01+
*       -1.191475676E+02               0
GRID*               1403               02.0000000000E+013.0090073093E+01+
*       -1.139366161E+02               0
GRID*               1404               02.0000000000E+013.0278313759E+01+
*       -1.448581911E+02               0
GRID*               1405               02.0000000000E+013.3275816577E+01+
*       -1.397025550E+02               0
GRID*               1406               02.0000000000E+013.6264933736E+01+
*       -1.345324252E+02               0
GRID*               1407               02.0000000000E+013.9245190214E+01+
*       -1.293450777E+02               0
GRID*               1408               02.0000000000E+014.2385107249E+01+
*       -1.448338444E+02               0
GRID*               1409               02.0000000000E+014.5370028415E+01+
*       -1.396556000E+02               0
GRID*               1410               02.0000000000E+014.8439782517E+01+
*       -1.448232521E+02               0
GRID*               1411               02.0000000000E+014.2305091785E+01+
*       -1.344955850E+02               0
GRID*               1412               02.0000000000E+013.6331160491E+01+
*       -1.448453483E+02               0
GRID*               1413               02.0000000000E+013.9321674758E+01+
*       -1.396774275E+02               0
GRID*               1414               02.0000000000E+013.6189351707E+01+
*       -1.242014164E+02               0
GRID*               1415               02.0000000000E+013.3137259615E+01+
*       -1.190644999E+02               0
GRID*               1416               02.0000000000E+012.1188702020E+01+
*       -1.397577998E+02               0
GRID*               1417               02.0000000000E+012.4226097086E+01+
*       -1.448719303E+02               0
GRID*               1418               02.0000000000E+012.4191722755E+01+
*       -1.346116120E+02               0
GRID*               1419               02.0000000000E+012.7230996094E+01+
*       -1.397287321E+02               0
GRID*               1420               02.0000000000E+013.0226642324E+01+
*       -1.345701205E+02               0
GRID*               1421               02.0000000000E+013.3212566938E+01+
*       -1.293943509E+02               0
GRID*               1422               02.0000000000E+013.0165691619E+01+
*       -1.242653521E+02               0
GRID*               1423               02.0000000000E+012.7183644204E+01+
*       -1.294471428E+02               0
GRID*               1424               02.0000000000E+012.0958241319E+01+
*       -9.856601956E+01               0
GRID*               1425               02.0000000000E+011.4982987697E+01+
*       -9.870874717E+01               0
GRID*               1426               02.0000000000E+019.0161374922E+00+
*       -9.886534098E+01               0
GRID*               1427               02.0000000000E+013.0627315110E+00+
*       -9.904258699E+01               0
GRID*               1428               02.0000000000E+01-2.869117953E+00+
*       -9.925119134E+01               0
GRID*               1429               02.0000000000E+01-5.888238199E+00+
*       -9.424613148E+01               0
GRID*               1430               02.0000000000E+014.2299679256E-02+
*       -9.399654217E+01               0
GRID*               1431               02.0000000000E+015.9879504974E+00+
*       -9.378629218E+01               0
GRID*               1432               02.0000000000E+011.1946020721E+01+
*       -9.360491259E+01               0
GRID*               1433               02.0000000000E+011.7912643818E+01+
*       -9.344261127E+01               0
GRID*               1434               02.0000000000E+011.8016711092E+01+
*       -1.038144444E+02               0
GRID*               1435               02.0000000000E+011.5064471797E+01+
*       -1.090399910E+02               0
GRID*               1436               02.0000000000E+011.2101136940E+01+
*       -1.142406063E+02               0
GRID*               1437               02.0000000000E+019.1256437124E+00+
*       -1.194112937E+02               0
GRID*               1438               02.0000000000E+016.0779329400E+00+
*       -1.041022528E+02               0
GRID*               1439               02.0000000000E+013.1350600697E+00+
*       -1.093040318E+02               0
GRID*               1440               02.0000000000E+011.3901066327E-01+
*       -1.042719818E+02               0
GRID*               1441               02.0000000000E+016.1302044754E+00+
*       -1.143482334E+02               0
GRID*               1442               02.0000000000E+011.2040632937E+01+
*       -1.039500728E+02               0
GRID*               1443               02.0000000000E+019.0908321970E+00+
*       -1.091641192E+02               0
GRID*               1444               02.0000000000E+011.2129070308E+01+
*       -1.244823544E+02               0
GRID*               1445               02.0000000000E+011.5140149991E+01+
*       -1.295634194E+02               0
GRID*               1446               02.0000000000E+012.7044402212E+01+
*       -1.088103083E+02               0
GRID*               1447               02.0000000000E+012.3999984970E+01+
*       -1.036861297E+02               0
GRID*               1448               02.0000000000E+011.5115747924E+01+
*       -1.193183386E+02               0
GRID*               1449               02.0000000000E+011.8134626281E+01+
*       -1.244062615E+02               0
GRID*               1450               02.0000000000E+012.1116266064E+01+
*       -1.192292741E+02               0
GRID*               1451               02.0000000000E+012.4085544985E+01+
*       -1.140300056E+02               0
GRID*               1452               02.0000000000E+012.1049454785E+01+
*       -1.089189663E+02               0
GRID*               1453               02.0000000000E+011.8088107868E+01+
*       -1.141292844E+02               0
GRID*               1454               02.0000000000E+01-3.707854473E+00+
*       -3.583891562E+01               0
GRID*               1455               02.0000000000E+01-7.365801270E-01+
*       -4.114974977E+01               0
GRID*               1456               02.0000000000E+012.2875303696E+00+
*       -4.645705279E+01               0
GRID*               1457               02.0000000000E+015.3444170094E+00+
*       -5.173541781E+01               0
GRID*               1458               02.0000000000E+018.4138878617E+00+
*       -5.697548600E+01               0
GRID*               1459               02.0000000000E+011.1483914548E+01+
*       -6.218188473E+01               0
GRID*               1460               02.0000000000E+011.4550526546E+01+
*       -6.736414134E+01               0
GRID*               1461               02.0000000000E+011.7614101003E+01+
*       -7.253142645E+01               0
GRID*               1462               02.0000000000E+012.0676107990E+01+
*       -7.769044726E+01               0
GRID*               1463               02.0000000000E+012.3737450923E+01+
*       -8.284519277E+01               0
GRID*               1464               02.0000000000E+012.6798398646E+01+
*       -8.799757964E+01               0
GRID*               1465               02.0000000000E+012.9858896993E+01+
*       -9.314777021E+01               0
GRID*               1466               02.0000000000E+013.2918931756E+01+
*       -9.829503711E+01               0
GRID*               1467               02.0000000000E+013.5979105039E+01+
*       -1.034397883E+02               0
GRID*               1468               02.0000000000E+013.9040798488E+01+
*       -1.085850550E+02               0
GRID*               1469               02.0000000000E+014.2106062654E+01+
*       -1.137363361E+02               0
GRID*               1470               02.0000000000E+014.5176274915E+01+
*       -1.188988060E+02               0
GRID*               1471               02.0000000000E+014.8250121963E+01+
*       -1.240731304E+02               0
GRID*               1472               02.0000000000E+015.1324443986E+01+
*       -1.292546751E+02               0
GRID*               1473               02.0000000000E+015.4397792500E+01+
*       -1.344378471E+02               0
GRID*               1474               02.0000000000E+015.7472361492E+01+
*       -1.396211193E+02               0
GRID*               1475               02.0000000000E+016.0551728814E+01+
*       -1.448074601E+02               0
GRID*               1476               02.0000000000E+01-8.632902888E-01+
*       -3.055704604E+01               0
GRID*               1477               02.0000000000E+012.1301440187E+00+
*       -3.578446659E+01               0
GRID*               1478               02.0000000000E+015.1613860646E+00+
*       -4.103834891E+01               0
GRID*               1479               02.0000000000E+018.2218378686E+00+
*       -4.629815367E+01               0
GRID*               1480               02.0000000000E+011.1294517189E+01+
*       -5.154746772E+01               0
GRID*               1481               02.0000000000E+011.4365270236E+01+
*       -5.677575944E+01               0
GRID*               1482               02.0000000000E+011.7429297032E+01+
*       -6.198054831E+01               0
GRID*               1483               02.0000000000E+012.0489655321E+01+
*       -6.716635593E+01               0
GRID*               1484               02.0000000000E+012.3551165235E+01+
*       -7.234044631E+01               0
GRID*               1485               02.0000000000E+012.6616102673E+01+
*       -7.750870183E+01               0
GRID*               1486               02.0000000000E+012.9683928461E+01+
*       -8.267373233E+01               0
GRID*               1487               02.0000000000E+013.2752836318E+01+
*       -8.783460518E+01               0
GRID*               1488               02.0000000000E+013.5821352292E+01+
*       -9.298880388E+01               0
GRID*               1489               02.0000000000E+013.8889571039E+01+
*       -9.813623679E+01               0
GRID*               1490               02.0000000000E+014.1959924466E+01+
*       -1.032824766E+02               0
GRID*               1491               02.0000000000E+014.5036647010E+01+
*       -1.084380922E+02               0
GRID*               1492               02.0000000000E+014.8122265552E+01+
*       -1.136130184E+02               0
GRID*               1493               02.0000000000E+015.1213328973E+01+
*       -1.188094478E+02               0
GRID*               1494               02.0000000000E+015.4301371114E+01+
*       -1.240187105E+02               0
GRID*               1495               02.0000000000E+015.7380388319E+01+
*       -1.292263584E+02               0
GRID*               1496               02.0000000000E+016.0453510720E+01+
*       -1.344235129E+02               0
GRID*               1497               02.0000000000E+016.3529552744E+01+
*       -1.396127159E+02               0
GRID*               1498               02.0000000000E+016.6612677576E+01+
*       -1.448026759E+02               0
GRID*               1499               02.0000000000E+011.8875347813E+00+
*       -2.528592279E+01               0
GRID*               1500               02.0000000000E+014.9178220873E+00+
*       -3.043460755E+01               0
GRID*               1501               02.0000000000E+017.9746301625E+00+
*       -3.562601713E+01               0
GRID*               1502               02.0000000000E+011.1062065898E+01+
*       -4.085699756E+01               0
GRID*               1503               02.0000000000E+011.4159010466E+01+
*       -4.611260629E+01               0
GRID*               1504               02.0000000000E+011.7241865254E+01+
*       -5.136764545E+01               0
GRID*               1505               02.0000000000E+012.0301978880E+01+
*       -5.659955370E+01               0
GRID*               1506               02.0000000000E+012.3349595301E+01+
*       -6.180205567E+01               0
GRID*               1507               02.0000000000E+012.6400747944E+01+
*       -6.698477794E+01               0
GRID*               1508               02.0000000000E+012.9463269065E+01+
*       -7.215990742E+01               0
GRID*               1509               02.0000000000E+013.2535781132E+01+
*       -7.733240119E+01               0
GRID*               1510               02.0000000000E+013.5613216203E+01+
*       -8.249963514E+01               0
GRID*               1511               02.0000000000E+013.8691022532E+01+
*       -8.765621767E+01               0
GRID*               1512               02.0000000000E+014.1767921443E+01+
*       -9.280048635E+01               0
GRID*               1513               02.0000000000E+014.4848012443E+01+
*       -9.793986561E+01               0
GRID*               1514               02.0000000000E+014.7939647713E+01+
*       -1.030909878E+02               0
GRID*               1515               02.0000000000E+015.1048482891E+01+
*       -1.082721227E+02               0
GRID*               1516               02.0000000000E+015.4170267065E+01+
*       -1.134915117E+02               0
GRID*               1517               02.0000000000E+015.7288449448E+01+
*       -1.187411366E+02               0
GRID*               1518               02.0000000000E+016.0382860631E+01+
*       -1.239956745E+02               0
GRID*               1519               02.0000000000E+016.3452630964E+01+
*       -1.292258496E+02               0
GRID*               1520               02.0000000000E+016.6519249443E+01+
*       -1.344248945E+02               0
GRID*               1521               02.0000000000E+016.9598344593E+01+
*       -1.396088464E+02               0
GRID*               1522               02.0000000000E+017.2684648768E+01+
*       -1.447963558E+02               0
GRID*               1523               02.0000000000E+014.6081978687E+00+
*       -2.000691324E+01               0
GRID*               1524               02.0000000000E+017.6324434541E+00+
*       -2.508391680E+01               0
GRID*               1525               02.0000000000E+011.0705860849E+01+
*       -3.019661617E+01               0
GRID*               1526               02.0000000000E+011.3839458249E+01+
*       -3.538114343E+01               0
GRID*               1527               02.0000000000E+011.6994536435E+01+
*       -4.064454962E+01               0
GRID*               1528               02.0000000000E+012.0119328766E+01+
*       -4.594968080E+01               0
GRID*               1529               02.0000000000E+012.3182801133E+01+
*       -5.123757322E+01               0
GRID*               1530               02.0000000000E+012.6201855458E+01+
*       -5.646807390E+01               0
GRID*               1531               02.0000000000E+012.9222643791E+01+
*       -6.165112243E+01               0
GRID*               1532               02.0000000000E+013.2271134021E+01+
*       -6.681909543E+01               0
GRID*               1533               02.0000000000E+013.5344536466E+01+
*       -7.198794765E+01               0
GRID*               1534               02.0000000000E+013.8430897026E+01+
*       -7.715478214E+01               0
GRID*               1535               02.0000000000E+014.1519543158E+01+
*       -8.230976086E+01               0
GRID*               1536               02.0000000000E+014.4605838832E+01+
*       -8.744655594E+01               0
GRID*               1537               02.0000000000E+014.7695317213E+01+
*       -9.257084070E+01               0
GRID*               1538               02.0000000000E+015.0802714410E+01+
*       -9.770302577E+01               0
GRID*               1539               02.0000000000E+015.3942152820E+01+
*       -1.028729837E+02               0
GRID*               1540               02.0000000000E+015.7111276319E+01+
*       -1.081040734E+02               0
GRID*               1541               02.0000000000E+016.0290453567E+01+
*       -1.133950937E+02               0
GRID*               1542               02.0000000000E+016.3432575850E+01+
*       -1.187252465E+02               0
GRID*               1543               02.0000000000E+016.6498941601E+01+
*       -1.240312790E+02               0
GRID*               1544               02.0000000000E+016.9535336878E+01+
*       -1.292598006E+02               0
GRID*               1545               02.0000000000E+017.2599783635E+01+
*       -1.344352733E+02               0
GRID*               1546               02.0000000000E+017.5690300266E+01+
*       -1.395990587E+02               0
GRID*               1547               02.0000000000E+017.8780687864E+01+
*       -1.447779437E+02               0
GRID*               1548               02.0000000000E+017.3873967898E+00+
*       -1.474177251E+01               0
GRID*               1549               02.0000000000E+011.0303648554E+01+
*       -1.974599348E+01               0
GRID*               1550               02.0000000000E+011.3327566592E+01+
*       -2.475198908E+01               0
GRID*               1551               02.0000000000E+011.6510702137E+01+
*       -2.983050755E+01               0
GRID*               1552               02.0000000000E+011.9771500152E+01+
*       -3.508093582E+01               0
GRID*               1553               02.0000000000E+012.3003313308E+01+
*       -4.046616261E+01               0
GRID*               1554               02.0000000000E+012.6112534924E+01+
*       -4.588471618E+01               0
GRID*               1555               02.0000000000E+012.9078175407E+01+
*       -5.120250279E+01               0
GRID*               1556               02.0000000000E+013.2020819189E+01+
*       -5.638389940E+01               0
GRID*               1557               02.0000000000E+013.5032701158E+01+
*       -6.151750183E+01               0
GRID*               1558               02.0000000000E+013.8101870314E+01+
*       -6.666213466E+01               0
GRID*               1559               02.0000000000E+014.1198448234E+01+
*       -7.181790031E+01               0
GRID*               1560               02.0000000000E+014.4301085310E+01+
*       -7.696817350E+01               0
GRID*               1561               02.0000000000E+014.7398317613E+01+
*       -8.209745294E+01               0
GRID*               1562               02.0000000000E+015.0494151560E+01+
*       -8.720247673E+01               0
GRID*               1563               02.0000000000E+015.3611087586E+01+
*       -9.230072955E+01               0
GRID*               1564               02.0000000000E+015.6778977169E+01+
*       -9.742908505E+01               0
GRID*               1565               02.0000000000E+016.0015436218E+01+
*       -1.026387531E+02               0
GRID*               1566               02.0000000000E+016.3278073053E+01+
*       -1.079571880E+02               0
GRID*               1567               02.0000000000E+016.6560903081E+01+
*       -1.133517460E+02               0
GRID*               1568               02.0000000000E+016.9670900705E+01+
*       -1.188245260E+02               0
GRID*               1569               02.0000000000E+017.2596010267E+01+
*       -1.241525149E+02               0
GRID*               1570               02.0000000000E+017.5616508891E+01+
*       -1.293070983E+02               0
GRID*               1571               02.0000000000E+017.8705381534E+01+
*       -1.344356908E+02               0
GRID*               1572               02.0000000000E+018.1824499303E+01+
*       -1.395608205E+02               0
GRID*               1573               02.0000000000E+018.4942578056E+01+
*       -1.447210985E+02               0
GRID*               1574               02.0000000000E+011.3029839840E+01+
*       -1.440433619E+01               0
GRID*               1575               02.0000000000E+011.5794144014E+01+
*       -1.939894336E+01               0
GRID*               1576               02.0000000000E+011.8978719715E+01+
*       -2.419326253E+01               0
GRID*               1577               02.0000000000E+012.2434404167E+01+
*       -2.932123476E+01               0
GRID*               1578               02.0000000000E+012.5850060572E+01+
*       -3.479755977E+01               0
GRID*               1579               02.0000000000E+012.9173623162E+01+
*       -4.042951416E+01               0
GRID*               1580               02.0000000000E+013.2092002064E+01+
*       -4.603960163E+01               0
GRID*               1581               02.0000000000E+013.4800793096E+01+
*       -5.126939257E+01               0
GRID*               1582               02.0000000000E+013.7731546975E+01+
*       -5.629861898E+01               0
GRID*               1583               02.0000000000E+014.0797629440E+01+
*       -6.137941898E+01               0
GRID*               1584               02.0000000000E+014.3910598273E+01+
*       -6.650705956E+01               0
GRID*               1585               02.0000000000E+014.7033520909E+01+
*       -7.164975275E+01               0
GRID*               1586               02.0000000000E+015.0147419285E+01+
*       -7.677777697E+01               0
GRID*               1587               02.0000000000E+015.3245624211E+01+
*       -8.187071432E+01               0
GRID*               1588               02.0000000000E+015.6355605321E+01+
*       -8.692894689E+01               0
GRID*               1589               02.0000000000E+015.9529828305E+01+
*       -9.198884244E+01               0
GRID*               1590               02.0000000000E+016.2816663704E+01+
*       -9.710513166E+01               0
GRID*               1591               02.0000000000E+016.6265757337E+01+
*       -1.023975085E+02               0
GRID*               1592               02.0000000000E+016.9541277983E+01+
*       -1.078734981E+02               0
GRID*               1593               02.0000000000E+017.3360842823E+01+
*       -1.133496722E+02               0
GRID*               1594               02.0000000000E+017.5699841277E+01+
*       -1.192493543E+02               0
GRID*               1595               02.0000000000E+017.8619431932E+01+
*       -1.242613584E+02               0
GRID*               1596               02.0000000000E+018.1721970069E+01+
*       -1.293274044E+02               0
GRID*               1597               02.0000000000E+018.4841086625E+01+
*       -1.344092073E+02               0
GRID*               1598               02.0000000000E+018.8033372890E+01+
*       -1.394464482E+02               0
GRID*               1599               02.0000000000E+019.1383337260E+01+
*       -1.445515667E+02               0
GRID*               1600               02.0000000000E+016.8456225446E+01+
*       -5.033507183E+01               0
GRID*               1601               02.0000000000E+016.6274037058E+01+
*       -5.546469550E+01               0
GRID*               1602               02.0000000000E+016.3957286151E+01+
*       -6.061218536E+01               0
GRID*               1603               02.0000000000E+016.1537038452E+01+
*       -6.606241017E+01               0
GRID*               1604               02.0000000000E+015.8732908580E+01+
*       -7.138095604E+01               0
GRID*               1605               02.0000000000E+015.5971995705E+01+
*       -7.660525054E+01               0
GRID*               1606               02.0000000000E+014.6564417860E+01+
*       -6.122957714E+01               0
GRID*               1607               02.0000000000E+015.2355401272E+01+
*       -6.108256041E+01               0
GRID*               1608               02.0000000000E+015.8160694544E+01+
*       -6.091657014E+01               0
GRID*               1609               02.0000000000E+015.5563773662E+01+
*       -6.621290127E+01               0
GRID*               1610               02.0000000000E+014.9717271373E+01+
*       -6.636206042E+01               0
GRID*               1611               02.0000000000E+015.2859189069E+01+
*       -7.150010441E+01               0
GRID*               1612               02.0000000000E+014.3411299101E+01+
*       -5.615468832E+01               0
GRID*               1613               02.0000000000E+014.9160299394E+01+
*       -5.601314960E+01               0
GRID*               1614               02.0000000000E+015.4919557676E+01+
*       -5.589923539E+01               0
GRID*               1615               02.0000000000E+016.0627024635E+01+
*       -5.573593951E+01               0
GRID*               1616               02.0000000000E+014.0296858259E+01+
*       -5.121787071E+01               0
GRID*               1617               02.0000000000E+014.5932140241E+01+
*       -5.090392214E+01               0
GRID*               1618               02.0000000000E+015.1781738175E+01+
*       -5.088469306E+01               0
GRID*               1619               02.0000000000E+015.7442641400E+01+
*       -5.085000001E+01               0
GRID*               1620               02.0000000000E+016.3017451450E+01+
*       -5.073239248E+01               0
GRID*               1621               02.0000000000E+014.8654729600E+01+
*       -4.477979970E+01               0
GRID*               1622               02.0000000000E+014.8952925159E+01+
*       -3.758153031E+01               0
GRID*               1623               02.0000000000E+015.4386072647E+01+
*       -4.118675375E+01               0
GRID*               1624               02.0000000000E+015.4470156860E+01+
*       -4.661237695E+01               0
GRID*               1625               02.0000000000E+015.9952055589E+01+
*       -4.516397484E+01               0
GRID*               1626               02.0000000000E+016.5300637487E+01+
*       -4.663367932E+01               0
GRID*               1627               02.0000000000E+013.7511446145E+01+
*       -4.659736969E+01               0
GRID*               1628               02.0000000000E+014.2433777317E+01+
*       -4.626479025E+01               0
GRID*               1629               02.0000000000E+013.5880439982E+01+
*       -4.077663452E+01               0
GRID*               1630               02.0000000000E+014.2652280709E+01+
*       -4.003571321E+01               0
GRID*               1631               02.0000000000E+013.9627425427E+01+
*       -4.356059495E+01               0
GRID*               1632               02.0000000000E+014.4189423318E+01+
*       -3.348105935E+01               0
GRID*               1633               02.0000000000E+013.2181089651E+01+
*       -3.459323330E+01               0
GRID*               1634               02.0000000000E+013.8484873589E+01+
*       -3.448438084E+01               0
GRID*               1635               02.0000000000E+013.5234094530E+01+
*       -2.814933281E+01               0
GRID*               1636               02.0000000000E+014.0711478382E+01+
*       -2.974658728E+01               0
GRID*               1637               02.0000000000E+012.8561014412E+01+
*       -2.886097372E+01               0
GRID*               1638               02.0000000000E+013.0743406234E+01+
*       -2.319135798E+01               0
GRID*               1639               02.0000000000E+012.4977490016E+01+
*       -2.304104690E+01               0
GRID*               1640               02.0000000000E+011.8169494965E+01+
*       -1.446698898E+01               0
GRID*               1641               02.0000000000E+012.0875827118E+01+
*       -1.879516064E+01               0
GRID*               1642               02.0000000000E+012.5083782178E+01+
*       -1.743282282E+01               0
GRID*               1643               02.0000000000E+012.8261903677E+01+
*       -1.942679245E+01               0
GRID*               1644               02.0000000000E+012.2317157877E+01+
*       -1.445770476E+01               0
GRID*               1645               02.0000000000E+019.4897536763E+01+
*       -6.872626676E+01               0
GRID*               1646               02.0000000000E+018.9752963635E+01+
*       -6.550587007E+01               0
GRID*               1647               02.0000000000E+018.4511699101E+01+
*       -6.232204789E+01               0
GRID*               1648               02.0000000000E+017.9047924219E+01+
*       -5.909903406E+01               0
GRID*               1649               02.0000000000E+017.2817539901E+01+
*       -5.553957669E+01               0
GRID*               1650               02.0000000000E+019.4919868629E+01+
*       -7.469508632E+01               0
GRID*               1651               02.0000000000E+018.9830595554E+01+
*       -7.147370423E+01               0
GRID*               1652               02.0000000000E+018.4692092296E+01+
*       -6.835600876E+01               0
GRID*               1653               02.0000000000E+017.9412704309E+01+
*       -6.534320270E+01               0
GRID*               1654               02.0000000000E+017.3879637150E+01+
*       -6.242016229E+01               0
GRID*               1655               02.0000000000E+016.9008214763E+01+
*       -5.996247105E+01               0
GRID*               1656               02.0000000000E+016.8259765409E+01+
*       -6.591349757E+01               0
GRID*               1657               02.0000000000E+016.4622039637E+01+
*       -7.147063856E+01               0
GRID*               1658               02.0000000000E+016.1731433317E+01+
*       -7.650014636E+01               0
GRID*               1659               02.0000000000E+015.9041881777E+01+
*       -8.164408535E+01               0
GRID*               1660               02.0000000000E+017.4506978724E+01+
*       -6.859541632E+01               0
GRID*               1661               02.0000000000E+017.0263786625E+01+
*       -7.228832439E+01               0
GRID*               1662               02.0000000000E+016.7202981897E+01+
*       -7.654495007E+01               0
GRID*               1663               02.0000000000E+016.4729782790E+01+
*       -8.139409569E+01               0
GRID*               1664               02.0000000000E+016.2184522328E+01+
*       -8.661983477E+01               0
GRID*               1665               02.0000000000E+017.8794508681E+01+
*       -1.108001587E+02               0
GRID*               1666               02.0000000000E+018.3829536702E+01+
*       -1.087000271E+02               0
GRID*               1667               02.0000000000E+018.9200833427E+01+
*       -1.065271875E+02               0
GRID*               1668               02.0000000000E+019.4631691260E+01+
*       -1.042935679E+02               0
GRID*               1669               02.0000000000E+019.4156419856E+01+
*       -1.159153419E+02               0
GRID*               1670               02.0000000000E+018.8804164618E+01+
*       -1.123468284E+02               0
GRID*               1671               02.0000000000E+019.4458070663E+01+
*       -1.101721534E+02               0
GRID*               1672               02.0000000000E+019.5713816440E+01+
*       -1.240793808E+02               0
GRID*               1673               02.0000000000E+019.3671359963E+01+
*       -1.206675223E+02               0
GRID*               1674               02.0000000000E+018.8088359730E+01+
*       -1.187213687E+02               0
GRID*               1675               02.0000000000E+018.3197872850E+01+
*       -1.141850147E+02               0
GRID*               1676               02.0000000000E+019.0765995322E+01+
*       -1.243877519E+02               0
GRID*               1677               02.0000000000E+018.7881879259E+01+
*       -1.293306414E+02               0
GRID*               1678               02.0000000000E+018.4740809029E+01+
*       -1.242416818E+02               0
GRID*               1679               02.0000000000E+017.8542885505E+01+
*       -1.153948413E+02               0
GRID*               1680               02.0000000000E+018.1442250529E+01+
*       -1.193407785E+02               0
GRID*               1681               02.0000000000E+019.4454418471E+01+
*       -1.292574605E+02               0
GRID*               1682               02.0000000000E+019.5934624045E+01+
*       -1.345721941E+02               0
GRID*               1683               02.0000000000E+019.0904470162E+01+
*       -1.343716803E+02               0
GRID*               1684               02.0000000000E+019.4338363925E+01+
*       -1.391121903E+02               0
GRID*               1685               02.0000000000E+018.9475984425E+01+
*       -1.007148670E+02               0
GRID*               1686               02.0000000000E+018.9676903967E+01+
*       -9.489657637E+01               0
GRID*               1687               02.0000000000E+018.9807137490E+01+
*       -8.908111670E+01               0
GRID*               1688               02.0000000000E+018.9868733031E+01+
*       -8.324429049E+01               0
GRID*               1689               02.0000000000E+018.9875104022E+01+
*       -7.738290011E+01               0
GRID*               1690               02.0000000000E+019.4924224264E+01+
*       -8.064921219E+01               0
GRID*               1691               02.0000000000E+019.4903847913E+01+
*       -8.657610200E+01               0
GRID*               1692               02.0000000000E+019.4853339967E+01+
*       -9.248974896E+01               0
GRID*               1693               02.0000000000E+019.4769700627E+01+
*       -9.839725764E+01               0
GRID*               1694               02.0000000000E+018.4212800020E+01+
*       -1.030123500E+02               0
GRID*               1695               02.0000000000E+018.4539211983E+01+
*       -9.725180874E+01               0
GRID*               1696               02.0000000000E+018.4784062264E+01+
*       -9.155558133E+01               0
GRID*               1697               02.0000000000E+018.4871664182E+01+
*       -8.584041451E+01               0
GRID*               1698               02.0000000000E+018.4886607634E+01+
*       -8.005664432E+01               0
GRID*               1699               02.0000000000E+018.4836936417E+01+
*       -7.425327456E+01               0
GRID*               1700               02.0000000000E+017.9063632197E+01+
*       -1.053913274E+02               0
GRID*               1701               02.0000000000E+017.9310334664E+01+
*       -9.954699166E+01               0
GRID*               1702               02.0000000000E+017.9907943911E+01+
*       -9.390027721E+01               0
GRID*               1703               02.0000000000E+018.0019234586E+01+
*       -8.846288364E+01               0
GRID*               1704               02.0000000000E+017.9907576032E+01+
*       -8.273106789E+01               0
GRID*               1705               02.0000000000E+017.9968613711E+01+
*       -7.699656946E+01               0
GRID*               1706               02.0000000000E+017.9772684939E+01+
*       -7.130515572E+01               0
GRID*               1707               02.0000000000E+016.8941836194E+01+
*       -9.664750515E+01               0
GRID*               1708               02.0000000000E+017.4798905627E+01+
*       -9.569563240E+01               0
GRID*               1709               02.0000000000E+017.3254922345E+01+
*       -1.022065667E+02               0
GRID*               1710               02.0000000000E+017.4851394770E+01+
*       -1.079559884E+02               0
GRID*               1711               02.0000000000E+016.8004346565E+01+
*       -8.622029808E+01               0
GRID*               1712               02.0000000000E+017.1257852806E+01+
*       -9.116074379E+01               0
GRID*               1713               02.0000000000E+016.5458099637E+01+
*       -9.161901943E+01               0
GRID*               1714               02.0000000000E+017.4379129142E+01+
*       -8.570287232E+01               0
GRID*               1715               02.0000000000E+017.6099005605E+01+
*       -9.103932729E+01               0
GRID*               1716               02.0000000000E+017.0169941701E+01+
*       -8.096311404E+01               0
GRID*               1717               02.0000000000E+017.5213699513E+01+
*       -7.950395888E+01               0
GRID*               1718               02.0000000000E+017.1616440659E+01+
*       -7.670211888E+01               0
GRID*               1719               02.0000000000E+017.5221762309E+01+
*       -7.424631781E+01               0
GRID*               1720               02.0000000000E+012.5875920076E+01+
*       -1.157842612E+01               0
GRID*               1721               02.0000000000E+012.2494103986E+01+
*       -8.793240936E+00               0
GRID*               1722               02.0000000000E+012.7401304933E+01+
*       -1.263967891E+01               0
GRID*               1723               02.0000000000E+01-6.809594689E+00+
*       -2.040838869E+01               0
GRID*               1724               02.0000000000E+01-9.789115059E+00+
*       -1.615847276E+01               0
GRID*               1725               02.0000000000E+01-1.234013536E+01+
*       -1.242419218E+01               0
GRID*               1726               02.0000000000E+01-8.608097218E+00+
*       -1.247226751E+01               0
GRID*               1727               02.0000000000E+01-4.589417085E+00+
*       -1.484932910E+01               0
GRID*               1728               02.0000000000E+01-1.723820001E+01+
*       -1.041773972E+01               0
GRID*               1729               02.0000000000E+01-1.600336176E+01+
*       -1.304439521E+01               0
GRID*               1730               02.0000000000E+01-1.415245314E+01+
*       -1.631328624E+01               0
GRID*               1731               02.0000000000E+01-1.197402522E+01+
*       -2.050607793E+01               0
GRID*               1732               02.0000000000E+01-9.420100799E+00+
*       -2.536671823E+01               0
GRID*               1733               02.0000000000E+01-8.467458969E+01+
*       -1.447453665E+02               0
GRID*               1734               02.0000000000E+01-8.138242514E+01+
*       -1.397354509E+02               0
GRID*               1735               02.0000000000E+01-7.837910287E+01+
*       -1.347613286E+02               0
GRID*               1736               02.0000000000E+01-7.551007938E+01+
*       -1.294326214E+02               0
GRID*               1737               02.0000000000E+01-7.225815210E+01+
*       -1.239044360E+02               0
GRID*               1738               02.0000000000E+01-6.883627593E+01+
*       -1.186872071E+02               0
GRID*               1739               02.0000000000E+01-6.568480332E+01+
*       -1.136769854E+02               0
GRID*               1740               02.0000000000E+01-6.268960878E+01+
*       -1.086665623E+02               0
GRID*               1741               02.0000000000E+01-5.969986635E+01+
*       -1.036640744E+02               0
GRID*               1742               02.0000000000E+01-5.668240341E+01+
*       -9.880161012E+01               0
GRID*               1743               02.0000000000E+01-5.350174015E+01+
*       -9.413971664E+01               0
GRID*               1744               02.0000000000E+01-4.891903309E+01+
*       -8.932481213E+01               0
GRID*               1745               02.0000000000E+01-4.582919159E+01+
*       -8.297069480E+01               0
GRID*               1746               02.0000000000E+01-4.314882405E+01+
*       -7.708992418E+01               0
GRID*               1747               02.0000000000E+01-4.028194741E+01+
*       -7.099924558E+01               0
GRID*               1748               02.0000000000E+01-3.716567327E+01+
*       -6.428924521E+01               0
GRID*               1749               02.0000000000E+01-3.261333815E+01+
*       -5.899363098E+01               0
GRID*               1750               02.0000000000E+01-2.913773597E+01+
*       -5.447164304E+01               0
GRID*               1751               02.0000000000E+01-2.557302669E+01+
*       -5.037643233E+01               0
GRID*               1752               02.0000000000E+01-2.179670959E+01+
*       -4.593136316E+01               0
GRID*               1753               02.0000000000E+01-1.845032369E+01+
*       -4.091332580E+01               0
GRID*               1754               02.0000000000E+01-1.539836709E+01+
*       -3.569277225E+01               0
GRID*               1755               02.0000000000E+01-1.236203302E+01+
*       -3.042876680E+01               0
GRID*               1756               02.0000000000E+01-7.863166927E+01+
*       -1.448223699E+02               0
GRID*               1757               02.0000000000E+01-7.263629847E+01+
*       -1.448035912E+02               0
GRID*               1758               02.0000000000E+01-7.551967100E+01+
*       -1.396935156E+02               0
GRID*               1759               02.0000000000E+01-6.956547648E+01+
*       -1.395846673E+02               0
GRID*               1760               02.0000000000E+01-7.248760539E+01+
*       -1.344899186E+02               0
GRID*               1761               02.0000000000E+01-6.651015490E+01+
*       -1.343101225E+02               0
GRID*               1762               02.0000000000E+01-6.940552150E+01+
*       -1.291590505E+02               0
GRID*               1763               02.0000000000E+01-6.343745355E+01+
*       -1.289964582E+02               0
GRID*               1764               02.0000000000E+01-2.468789078E+01+
*       -5.513407481E+01               0
GRID*               1765               02.0000000000E+01-6.623041390E+01+
*       -1.238350098E+02               0
GRID*               1766               02.0000000000E+01-6.036765795E+01+
*       -1.236988289E+02               0
GRID*               1767               02.0000000000E+01-2.709880156E+01+
*       -5.934126393E+01               0
GRID*               1768               02.0000000000E+01-6.308872991E+01+
*       -1.186265472E+02               0
GRID*               1769               02.0000000000E+01-5.734777372E+01+
*       -1.184463987E+02               0
GRID*               1770               02.0000000000E+01-3.030429314E+01+
*       -6.444940144E+01               0
GRID*               1771               02.0000000000E+01-3.364104429E+01+
*       -7.017114531E+01               0
GRID*               1772               02.0000000000E+01-6.005346556E+01+
*       -1.135008841E+02               0
GRID*               1773               02.0000000000E+01-5.439909184E+01+
*       -1.132458385E+02               0
GRID*               1774               02.0000000000E+01-3.666363494E+01+
*       -7.610550575E+01               0
GRID*               1775               02.0000000000E+01-5.418614690E+01+
*       -1.034377216E+02               0
GRID*               1776               02.0000000000E+01-4.877374940E+01+
*       -1.031045301E+02               0
GRID*               1777               02.0000000000E+01-5.152752800E+01+
*       -1.081221218E+02               0
GRID*               1778               02.0000000000E+01-5.709247303E+01+
*       -1.084400807E+02               0
GRID*               1779               02.0000000000E+01-3.947802449E+01+
*       -8.192955553E+01               0
GRID*               1780               02.0000000000E+01-4.624308210E+01+
*       -9.831235318E+01               0
GRID*               1781               02.0000000000E+01-4.423132981E+01+
*       -9.332244589E+01               0
GRID*               1782               02.0000000000E+01-4.212322957E+01+
*       -8.773042980E+01               0
GRID*               1783               02.0000000000E+01-5.136128424E+01+
*       -9.875906996E+01               0
GRID*               1784               02.0000000000E+01-4.885485126E+01+
*       -9.485078724E+01               0
GRID*               1785               02.0000000000E+01-9.127120925E+01+
*       -1.444806991E+02               0
GRID*               1786               02.0000000000E+01-8.717330102E+01+
*       -1.395090615E+02               0
GRID*               1787               02.0000000000E+01-8.387987467E+01+
*       -1.350185874E+02               0
GRID*               1788               02.0000000000E+01-8.138746874E+01+
*       -1.302642691E+02               0
GRID*               1789               02.0000000000E+01-7.917196574E+01+
*       -1.239294572E+02               0
GRID*               1790               02.0000000000E+01-7.461870663E+01+
*       -1.184850609E+02               0
GRID*               1791               02.0000000000E+01-7.121583960E+01+
*       -1.137608222E+02               0
GRID*               1792               02.0000000000E+01-6.827221109E+01+
*       -1.089738028E+02               0
GRID*               1793               02.0000000000E+01-6.539465701E+01+
*       -1.039204200E+02               0
GRID*               1794               02.0000000000E+01-6.225629429E+01+
*       -9.896649871E+01               0
GRID*               1795               02.0000000000E+01-5.921764645E+01+
*       -9.409859467E+01               0
GRID*               1796               02.0000000000E+01-5.583507298E+01+
*       -8.892741632E+01               0
GRID*               1797               02.0000000000E+01-5.220780459E+01+
*       -8.361040300E+01               0
GRID*               1798               02.0000000000E+01-4.937689233E+01+
*       -7.828551573E+01               0
GRID*               1799               02.0000000000E+01-4.756322238E+01+
*       -7.199928253E+01               0
GRID*               1800               02.0000000000E+01-4.391818981E+01+
*       -6.594300596E+01               0
GRID*               1801               02.0000000000E+01-4.182165364E+01+
*       -6.121190777E+01               0
GRID*               1802               02.0000000000E+01-3.813518652E+01+
*       -5.791544829E+01               0
GRID*               1803               02.0000000000E+01-3.436884894E+01+
*       -5.364515120E+01               0
GRID*               1804               02.0000000000E+01-3.078085098E+01+
*       -4.935596914E+01               0
GRID*               1805               02.0000000000E+01-2.724382364E+01+
*       -4.507064600E+01               0
GRID*               1806               02.0000000000E+01-2.393663983E+01+
*       -4.068360028E+01               0
GRID*               1807               02.0000000000E+01-2.118087409E+01+
*       -3.579455936E+01               0
GRID*               1808               02.0000000000E+01-1.832823143E+01+
*       -3.023277143E+01               0
GRID*               1809               02.0000000000E+01-1.494706231E+01+
*       -2.503345442E+01               0
GRID*               1810               02.0000000000E+01-2.157155656E+01+
*       -8.040656492E+00               0
GRID*               1811               02.0000000000E+01-2.264443398E+01+
*       -9.496554009E+00               0
GRID*               1812               02.0000000000E+01-2.426426061E+01+
*       -1.091255401E+01               0
GRID*               1813               02.0000000000E+01-2.618281571E+01+
*       -1.231299022E+01               0
GRID*               1814               02.0000000000E+01-2.905248734E+01+
*       -1.390370487E+01               0
GRID*               1815               02.0000000000E+01-3.227259432E+01+
*       -1.658701751E+01               0
GRID*               1816               02.0000000000E+01-3.559419848E+01+
*       -1.961245328E+01               0
GRID*               1817               02.0000000000E+01-3.918442569E+01+
*       -2.350703441E+01               0
GRID*               1818               02.0000000000E+01-4.267077173E+01+
*       -2.796473931E+01               0
GRID*               1819               02.0000000000E+01-4.724430489E+01+
*       -2.783786391E+01               0
GRID*               1820               02.0000000000E+01-5.091587080E+01+
*       -3.073279972E+01               0
GRID*               1821               02.0000000000E+01-5.536493091E+01+
*       -3.437276706E+01               0
GRID*               1822               02.0000000000E+01-6.024995273E+01+
*       -3.797619715E+01               0
GRID*               1823               02.0000000000E+01-6.512129633E+01+
*       -4.128538241E+01               0
GRID*               1824               02.0000000000E+01-6.983315903E+01+
*       -4.463005442E+01               0
GRID*               1825               02.0000000000E+01-7.457069753E+01+
*       -4.807584088E+01               0
GRID*               1826               02.0000000000E+01-7.939280333E+01+
*       -5.162457446E+01               0
GRID*               1827               02.0000000000E+01-8.434318464E+01+
*       -5.526976222E+01               0
GRID*               1828               02.0000000000E+01-8.946641010E+01+
*       -5.894651634E+01               0
GRID*               1829               02.0000000000E+01-9.471686219E+01+
*       -6.253514372E+01               0
GRID*               1830               02.0000000000E+01-4.658711946E+01+
*       -6.112731137E+01               0
GRID*               1831               02.0000000000E+01-4.845920505E+01+
*       -5.613993488E+01               0
GRID*               1832               02.0000000000E+01-5.015102351E+01+
*       -5.106183245E+01               0
GRID*               1833               02.0000000000E+01-5.190350039E+01+
*       -4.611364425E+01               0
GRID*               1834               02.0000000000E+01-5.465343892E+01+
*       -4.082101763E+01               0
GRID*               1835               02.0000000000E+01-4.486700579E+01+
*       -5.186881794E+01               0
GRID*               1836               02.0000000000E+01-4.126372826E+01+
*       -4.758074355E+01               0
GRID*               1837               02.0000000000E+01-3.764518960E+01+
*       -4.326767476E+01               0
GRID*               1838               02.0000000000E+01-3.402802041E+01+
*       -3.901406077E+01               0
GRID*               1839               02.0000000000E+01-3.031106609E+01+
*       -3.487873788E+01               0
GRID*               1840               02.0000000000E+01-2.525129114E+01+
*       -3.057487118E+01               0
GRID*               1841               02.0000000000E+01-2.110277556E+01+
*       -2.383616629E+01               0
GRID*               1842               02.0000000000E+01-2.036799756E+01+
*       -1.862383996E+01               0
GRID*               1843               02.0000000000E+01-1.805267547E+01+
*       -1.593524806E+01               0
GRID*               1844               02.0000000000E+01-4.324739594E+01+
*       -5.683318770E+01               0
GRID*               1845               02.0000000000E+01-3.965102911E+01+
*       -5.271640770E+01               0
GRID*               1846               02.0000000000E+01-3.602325123E+01+
*       -4.845430841E+01               0
GRID*               1847               02.0000000000E+01-3.244522967E+01+
*       -4.419333289E+01               0
GRID*               1848               02.0000000000E+01-1.671972800E+01+
*       -1.997276213E+01               0
GRID*               1849               02.0000000000E+01-2.897642321E+01+
*       -4.004835510E+01               0
GRID*               1850               02.0000000000E+01-2.595016814E+01+
*       -3.650573014E+01               0
GRID*               1851               02.0000000000E+01-4.659221749E+01+
*       -4.676801798E+01               0
GRID*               1852               02.0000000000E+01-4.841330856E+01+
*       -4.156588354E+01               0
GRID*               1853               02.0000000000E+01-4.296134680E+01+
*       -4.240438890E+01               0
GRID*               1854               02.0000000000E+01-4.996163903E+01+
*       -3.609470552E+01               0
GRID*               1855               02.0000000000E+01-4.459277993E+01+
*       -3.718940393E+01               0
GRID*               1856               02.0000000000E+01-3.929722017E+01+
*       -3.809701978E+01               0
GRID*               1857               02.0000000000E+01-2.426516365E+01+
*       -1.895521007E+01               0
GRID*               1858               02.0000000000E+01-2.566003739E+01+
*       -1.520225280E+01               0
GRID*               1859               02.0000000000E+01-2.191581755E+01+
*       -1.516012922E+01               0
GRID*               1860               02.0000000000E+01-1.919012538E+01+
*       -1.264862985E+01               0
GRID*               1861               02.0000000000E+01-2.202156430E+01+
*       -1.178315800E+01               0
GRID*               1862               02.0000000000E+01-2.403693810E+01+
*       -1.300832440E+01               0
GRID*               1863               02.0000000000E+01-2.001191013E+01+
*       -9.713825710E+00               0
GRID*               1864               02.0000000000E+01-3.563295718E+01+
*       -3.379927551E+01               0
GRID*               1865               02.0000000000E+01-3.182645728E+01+
*       -2.927025408E+01               0
GRID*               1866               02.0000000000E+01-2.810182646E+01+
*       -2.356561446E+01               0
GRID*               1867               02.0000000000E+01-3.738259093E+01+
*       -2.859779319E+01               0
GRID*               1868               02.0000000000E+01-4.094270961E+01+
*       -3.296098215E+01               0
GRID*               1869               02.0000000000E+01-4.605295903E+01+
*       -3.212310789E+01               0
GRID*               1870               02.0000000000E+01-2.852196912E+01+
*       -1.799296216E+01               0
GRID*               1871               02.0000000000E+01-3.174109433E+01+
*       -2.029152200E+01               0
GRID*               1872               02.0000000000E+01-3.401240488E+01+
*       -2.413100513E+01               0
GRID*               1873               02.0000000000E+01-5.225228920E+01+
*       -6.055822844E+01               0
GRID*               1874               02.0000000000E+01-5.802816412E+01+
*       -5.934507807E+01               0
GRID*               1875               02.0000000000E+01-6.351050933E+01+
*       -5.762944308E+01               0
GRID*               1876               02.0000000000E+01-6.881394747E+01+
*       -5.576260290E+01               0
GRID*               1877               02.0000000000E+01-7.409060321E+01+
*       -5.376086102E+01               0
GRID*               1878               02.0000000000E+01-6.481924921E+01+
*       -4.680173749E+01               0
GRID*               1879               02.0000000000E+01-6.428208332E+01+
*       -5.217885861E+01               0
GRID*               1880               02.0000000000E+01-6.939199539E+01+
*       -5.019664656E+01               0
GRID*               1881               02.0000000000E+01-5.388306168E+01+
*       -5.518285306E+01               0
GRID*               1882               02.0000000000E+01-5.915956571E+01+
*       -5.387030904E+01               0
GRID*               1883               02.0000000000E+01-6.026235959E+01+
*       -4.363984140E+01               0
GRID*               1884               02.0000000000E+01-6.002219977E+01+
*       -4.877483289E+01               0
GRID*               1885               02.0000000000E+01-5.644361357E+01+
*       -4.598522935E+01               0
GRID*               1886               02.0000000000E+01-5.526386648E+01+
*       -5.015487990E+01               0
GRID*               1887               02.0000000000E+01-7.344239539E+01+
*       -5.944728372E+01               0
GRID*               1888               02.0000000000E+01-7.814594031E+01+
*       -6.336295062E+01               0
GRID*               1889               02.0000000000E+01-8.320642248E+01+
*       -6.814739422E+01               0
GRID*               1890               02.0000000000E+01-8.940802180E+01+
*       -7.142981676E+01               0
GRID*               1891               02.0000000000E+01-9.478042109E+01+
*       -7.468538665E+01               0
GRID*               1892               02.0000000000E+01-8.388762155E+01+
*       -6.136497421E+01               0
GRID*               1893               02.0000000000E+01-7.887007557E+01+
*       -5.746341728E+01               0
GRID*               1894               02.0000000000E+01-8.925012337E+01+
*       -6.516863439E+01               0
GRID*               1895               02.0000000000E+01-9.469706449E+01+
*       -6.864008623E+01               0
GRID*               1896               02.0000000000E+01-6.805276118E+01+
*       -6.131882271E+01               0
GRID*               1897               02.0000000000E+01-7.257838458E+01+
*       -6.503098904E+01               0
GRID*               1898               02.0000000000E+01-7.686889060E+01+
*       -6.889194356E+01               0
GRID*               1899               02.0000000000E+01-8.004766408E+01+
*       -7.251852636E+01               0
GRID*               1900               02.0000000000E+01-8.451427713E+01+
*       -7.444958755E+01               0
GRID*               1901               02.0000000000E+01-8.966208930E+01+
*       -7.739567174E+01               0
GRID*               1902               02.0000000000E+01-9.483252610E+01+
*       -8.063926158E+01               0
GRID*               1903               02.0000000000E+01-6.265303695E+01+
*       -6.322875846E+01               0
GRID*               1904               02.0000000000E+01-6.727065022E+01+
*       -6.677771596E+01               0
GRID*               1905               02.0000000000E+01-7.163114659E+01+
*       -7.034864299E+01               0
GRID*               1906               02.0000000000E+01-7.575495883E+01+
*       -7.386704897E+01               0
GRID*               1907               02.0000000000E+01-7.998523302E+01+
*       -7.699802089E+01               0
GRID*               1908               02.0000000000E+01-8.470001965E+01+
*       -7.998319107E+01               0
GRID*               1909               02.0000000000E+01-8.970820749E+01+
*       -8.320447391E+01               0
GRID*               1910               02.0000000000E+01-9.482425345E+01+
*       -8.656692049E+01               0
GRID*               1911               02.0000000000E+01-5.671972135E+01+
*       -6.559082148E+01               0
GRID*               1912               02.0000000000E+01-6.219353097E+01+
*       -6.866973208E+01               0
GRID*               1913               02.0000000000E+01-6.648614286E+01+
*       -7.198725166E+01               0
GRID*               1914               02.0000000000E+01-7.075059228E+01+
*       -7.550133820E+01               0
GRID*               1915               02.0000000000E+01-7.513172308E+01+
*       -7.896845466E+01               0
GRID*               1916               02.0000000000E+01-7.973694776E+01+
*       -8.230900347E+01               0
GRID*               1917               02.0000000000E+01-8.458944854E+01+
*       -8.564374293E+01               0
GRID*               1918               02.0000000000E+01-8.962178240E+01+
*       -8.906114789E+01               0
GRID*               1919               02.0000000000E+01-9.477461317E+01+
*       -9.253111192E+01               0
GRID*               1920               02.0000000000E+01-6.847740408E+01+
*       -9.871336869E+01               0
GRID*               1921               02.0000000000E+01-7.379827416E+01+
*       -9.584089973E+01               0
GRID*               1922               02.0000000000E+01-7.902575766E+01+
*       -9.369998428E+01               0
GRID*               1923               02.0000000000E+01-8.435352272E+01+
*       -9.145822381E+01               0
GRID*               1924               02.0000000000E+01-6.991909494E+01+
*       -8.080956790E+01               0
GRID*               1925               02.0000000000E+01-6.914354935E+01+
*       -8.651386152E+01               0
GRID*               1926               02.0000000000E+01-6.884074697E+01+
*       -9.246021554E+01               0
GRID*               1927               02.0000000000E+01-7.458589800E+01+
*       -8.443574017E+01               0
GRID*               1928               02.0000000000E+01-7.414085157E+01+
*       -9.015061617E+01               0
GRID*               1929               02.0000000000E+01-7.940202948E+01+
*       -8.794640870E+01               0
GRID*               1930               02.0000000000E+01-5.010465933E+01+
*       -6.596125763E+01               0
GRID*               1931               02.0000000000E+01-5.370383295E+01+
*       -7.064670155E+01               0
GRID*               1932               02.0000000000E+01-5.684922080E+01+
*       -7.448919203E+01               0
GRID*               1933               02.0000000000E+01-6.024516377E+01+
*       -7.828465464E+01               0
GRID*               1934               02.0000000000E+01-6.434611241E+01+
*       -8.247097465E+01               0
GRID*               1935               02.0000000000E+01-5.822431978E+01+
*       -7.067017756E+01               0
GRID*               1936               02.0000000000E+01-6.157250374E+01+
*       -7.352160763E+01               0
GRID*               1937               02.0000000000E+01-6.554595746E+01+
*       -7.708125689E+01               0
GRID*               1938               02.0000000000E+01-5.258911113E+01+
*       -7.489305982E+01               0
GRID*               1939               02.0000000000E+01-5.494700203E+01+
*       -7.880784538E+01               0
GRID*               1940               02.0000000000E+01-5.838310617E+01+
*       -8.345806483E+01               0
GRID*               1941               02.0000000000E+01-6.286715500E+01+
*       -8.892959802E+01               0
GRID*               1942               02.0000000000E+01-6.430821421E+01+
*       -9.466343506E+01               0
GRID*               1943               02.0000000000E+01-8.400825367E+01+
*       -9.746460945E+01               0
GRID*               1944               02.0000000000E+01-8.934093861E+01+
*       -1.011820238E+02               0
GRID*               1945               02.0000000000E+01-9.474961024E+01+
*       -1.046167014E+02               0
GRID*               1946               02.0000000000E+01-8.947066511E+01+
*       -9.503663923E+01               0
GRID*               1947               02.0000000000E+01-9.472532831E+01+
*       -9.856055409E+01               0
GRID*               1948               02.0000000000E+01-7.845725577E+01+
*       -9.947785552E+01               0
GRID*               1949               02.0000000000E+01-8.342833828E+01+
*       -1.041664047E+02               0
GRID*               1950               02.0000000000E+01-8.955087223E+01+
*       -1.073502408E+02               0
GRID*               1951               02.0000000000E+01-9.485024598E+01+
*       -1.106080451E+02               0
GRID*               1952               02.0000000000E+01-7.376245562E+01+
*       -1.007384633E+02               0
GRID*               1953               02.0000000000E+01-7.691062199E+01+
*       -1.052106318E+02               0
GRID*               1954               02.0000000000E+01-8.072784863E+01+
*       -1.084864255E+02               0
GRID*               1955               02.0000000000E+01-8.490405608E+01+
*       -1.102479013E+02               0
GRID*               1956               02.0000000000E+01-8.987090541E+01+
*       -1.131781881E+02               0
GRID*               1957               02.0000000000E+01-9.493406763E+01+
*       -1.164875471E+02               0
GRID*               1958               02.0000000000E+01-8.015673290E+01+
*       -1.174585065E+02               0
GRID*               1959               02.0000000000E+01-8.509356082E+01+
*       -1.155410310E+02               0
GRID*               1960               02.0000000000E+01-8.078721819E+01+
*       -1.124862990E+02               0
GRID*               1961               02.0000000000E+01-7.633440565E+01+
*       -1.135425566E+02               0
GRID*               1962               02.0000000000E+01-7.768921683E+01+
*       -1.098624097E+02               0
GRID*               1963               02.0000000000E+01-7.357276433E+01+
*       -1.093303035E+02               0
GRID*               1964               02.0000000000E+01-7.106662954E+01+
*       -1.045303069E+02               0
GRID*               1965               02.0000000000E+01-8.996385927E+01+
*       -1.188503941E+02               0
GRID*               1966               02.0000000000E+01-9.494833773E+01+
*       -1.222972379E+02               0
GRID*               1967               02.0000000000E+01-8.497474485E+01+
*       -1.211651125E+02               0
GRID*               1968               02.0000000000E+01-8.998696125E+01+
*       -1.244837528E+02               0
GRID*               1969               02.0000000000E+01-9.484895389E+01+
*       -1.279866541E+02               0
GRID*               1970               02.0000000000E+01-8.528390336E+01+
*       -1.268422298E+02               0
GRID*               1971               02.0000000000E+01-9.288831691E+01+
*       -1.386995166E+02               0
GRID*               1972               02.0000000000E+01-9.628032521E+01+
*       -1.461149304E+02               0
GRID*               1973               02.0000000000E+01-9.607807762E+01+
*       -1.423491342E+02               0
GRID*               1974               02.0000000000E+01-8.900791996E+01+
*       -1.346038478E+02               0
GRID*               1975               02.0000000000E+01-8.590422870E+01+
*       -1.313030380E+02               0
GRID*               1976               02.0000000000E+01-8.989680936E+01+
*       -1.297740297E+02               0
GRID*               1977               02.0000000000E+01-9.439203685E+01+
*       -1.334627936E+02               0
GRID*               1978               02.0000000000E+01-1.491090312E+01+
*       -1.063352361E+01               0
GRID*               1979               02.0000000000E+01-3.134753613E+01+
*       -1.034790615E+01               0
GRID*               1980               02.0000000000E+01-3.116037898E+01+
*       -8.601859794E+00               0
GRID*               1981               02.0000000000E+01-3.074424938E+01+
*       -6.853746595E+00               0
GRID*               1982               02.0000000000E+01-3.034065847E+01+
*       -5.369185485E+00               0
GRID*               1983               02.0000000000E+01-2.997263164E+01+
*       -4.160585272E+00               0
GRID*               1984               02.0000000000E+01-2.968505422E+01+
*       -3.087850618E+00               0
GRID*               1985               02.0000000000E+01-2.618840900E+01+
*       -8.054197875E+00               0
GRID*               1986               02.0000000000E+01-2.607999039E+01+
*       -6.331249682E+00               0
GRID*               1987               02.0000000000E+01-2.653723631E+01+
*       -5.411331535E+00               0
GRID*               1988               02.0000000000E+01-2.474866191E+01+
*       -7.112381551E+00               0
GRID*               1989               02.0000000000E+01-2.895223267E+01+
*       -3.852927749E+00               0
GRID*               1990               02.0000000000E+01-2.968807687E+01+
*       -9.726875143E+00               0
GRID*               1991               02.0000000000E+01-2.911818807E+01+
*       -4.961436847E+00               0
GRID*               1992               02.0000000000E+01-2.924178387E+01+
*       -6.279083135E+00               0
GRID*               1993               02.0000000000E+01-2.940927188E+01+
*       -7.905751987E+00               0
GRID*               1994               02.0000000000E+01-2.812838433E+01+
*       -4.521853403E+00               0
GRID*               1995               02.0000000000E+01-2.772647423E+01+
*       -7.004976116E+00               0
GRID*               1996               02.0000000000E+01-2.789674434E+01+
*       -8.949601805E+00               0
GRID*               1997               02.0000000000E+01-2.727125518E+01+
*       -5.039044016E+00               0
GRID*               1998               02.0000000000E+01-2.810335935E+01+
*       -5.584950059E+00               0
GRID*               1999               02.0000000000E+01-2.714335130E+01+
*       -5.834296341E+00               0
GRID*               2000               02.0000000000E+01-2.994100149E+01+
*       2.3751961361E+00               0
GRID*               2001               02.0000000000E+01-2.973586931E+01+
*       3.3681882262E+00               0
GRID*               2002               02.0000000000E+01-3.014537767E+01+
*       4.6631037910E+00               0
GRID*               2003               02.0000000000E+01-2.884118415E+01+
*       4.2700576474E+00               0
GRID*               2004               02.0000000000E+01-9.471149747E+01+
*       2.7081512690E+01               0
GRID*               2005               02.0000000000E+01-8.935206596E+01+
*       2.4236730557E+01               0
GRID*               2006               02.0000000000E+01-8.390397624E+01+
*       2.1435359482E+01               0
GRID*               2007               02.0000000000E+01-7.835161481E+01+
*       1.8664235235E+01               0
GRID*               2008               02.0000000000E+01-7.273019966E+01+
*       1.6023146270E+01               0
GRID*               2009               02.0000000000E+01-6.720639807E+01+
*       1.3627679284E+01               0
GRID*               2010               02.0000000000E+01-6.192080500E+01+
*       1.1463879399E+01               0
GRID*               2011               02.0000000000E+01-5.680584557E+01+
*       9.5855117361E+00               0
GRID*               2012               02.0000000000E+01-5.081340454E+01+
*       8.3121756712E+00               0
GRID*               2013               02.0000000000E+01-4.538097699E+01+
*       5.3509934970E+00               0
GRID*               2014               02.0000000000E+01-4.130599397E+01+
*       3.9100314021E+00               0
GRID*               2015               02.0000000000E+01-3.778998145E+01+
*       3.1977102931E+00               0
GRID*               2016               02.0000000000E+01-3.536579447E+01+
*       1.9219796966E+00               0
GRID*               2017               02.0000000000E+01-3.353471271E+01+
*       1.3272926262E+00               0
GRID*               2018               02.0000000000E+01-3.198115231E+01+
*       7.8612606102E-01               0
GRID*               2019               02.0000000000E+01-3.083369434E+01+
*       2.5821730353E-01               0
GRID*               2020               02.0000000000E+01-9.499144012E+01+
*       -3.264018480E+01               0
GRID*               2021               02.0000000000E+01-9.000397122E+01+
*       -3.519615287E+01               0
GRID*               2022               02.0000000000E+01-8.500701801E+01+
*       -3.766649607E+01               0
GRID*               2023               02.0000000000E+01-7.997189569E+01+
*       -4.005533153E+01               0
GRID*               2024               02.0000000000E+01-9.493960120E+01+
*       -4.451642620E+01               0
GRID*               2025               02.0000000000E+01-8.982597323E+01+
*       -4.697099001E+01               0
GRID*               2026               02.0000000000E+01-9.487407163E+01+
*       -5.047726230E+01               0
GRID*               2027               02.0000000000E+01-8.993346872E+01+
*       -4.106766274E+01               0
GRID*               2028               02.0000000000E+01-8.485216749E+01+
*       -4.348916383E+01               0
GRID*               2029               02.0000000000E+01-9.497610093E+01+
*       -3.856887112E+01               0
GRID*               2030               02.0000000000E+01-9.499024836E+01+
*       -2.674114415E+01               0
GRID*               2031               02.0000000000E+01-9.005358985E+01+
*       -2.937293511E+01               0
GRID*               2032               02.0000000000E+01-8.514171541E+01+
*       -3.188258922E+01               0
GRID*               2033               02.0000000000E+01-8.019019019E+01+
*       -3.429266786E+01               0
GRID*               2034               02.0000000000E+01-7.518083017E+01+
*       -3.664414149E+01               0
GRID*               2035               02.0000000000E+01-9.494901188E+01+
*       -2.086917479E+01               0
GRID*               2036               02.0000000000E+01-9.005561399E+01+
*       -2.364126710E+01               0
GRID*               2037               02.0000000000E+01-8.527665987E+01+
*       -2.622489837E+01               0
GRID*               2038               02.0000000000E+01-8.045323685E+01+
*       -2.861014518E+01               0
GRID*               2039               02.0000000000E+01-7.549538489E+01+
*       -3.091791916E+01               0
GRID*               2040               02.0000000000E+01-7.045284637E+01+
*       -3.323329871E+01               0
GRID*               2041               02.0000000000E+01-9.485147484E+01+
*       -1.497635898E+01               0
GRID*               2042               02.0000000000E+01-8.991356515E+01+
*       -1.795591349E+01               0
GRID*               2043               02.0000000000E+01-8.532944594E+01+
*       -2.081461085E+01               0
GRID*               2044               02.0000000000E+01-8.081512379E+01+
*       -2.317864102E+01               0
GRID*               2045               02.0000000000E+01-7.595049354E+01+
*       -2.526123585E+01               0
GRID*               2046               02.0000000000E+01-7.086776039E+01+
*       -2.748244718E+01               0
GRID*               2047               02.0000000000E+01-6.573808011E+01+
*       -2.978565802E+01               0
GRID*               2048               02.0000000000E+01-9.472294274E+01+
*       -9.011316314E+00               0
GRID*               2049               02.0000000000E+01-8.961486952E+01+
*       -1.213812954E+01               0
GRID*               2050               02.0000000000E+01-8.484732055E+01+
*       -1.542224261E+01               0
GRID*               2051               02.0000000000E+01-8.129564108E+01+
*       -1.860164254E+01               0
GRID*               2052               02.0000000000E+01-7.672505375E+01+
*       -1.972452158E+01               0
GRID*               2053               02.0000000000E+01-7.147296554E+01+
*       -2.171973135E+01               0
GRID*               2054               02.0000000000E+01-6.622054896E+01+
*       -2.397255068E+01               0
GRID*               2055               02.0000000000E+01-6.100712547E+01+
*       -2.630846456E+01               0
GRID*               2056               02.0000000000E+01-9.460733888E+01+
*       -2.979476868E+00               0
GRID*               2057               02.0000000000E+01-8.931405990E+01+
*       -6.117993734E+00               0
GRID*               2058               02.0000000000E+01-8.413032649E+01+
*       -9.492544341E+00               0
GRID*               2059               02.0000000000E+01-7.868712139E+01+
*       -1.359221399E+01               0
GRID*               2060               02.0000000000E+01-7.235210212E+01+
*       -1.580685140E+01               0
GRID*               2061               02.0000000000E+01-6.685348899E+01+
*       -1.808357764E+01               0
GRID*               2062               02.0000000000E+01-6.150143459E+01+
*       -2.043964816E+01               0
GRID*               2063               02.0000000000E+01-5.621745381E+01+
*       -2.287080172E+01               0
GRID*               2064               02.0000000000E+01-9.453215078E+01+
*       3.0844430891E+00               0
GRID*               2065               02.0000000000E+01-8.909249282E+01+
*       -5.762594088E-03               0
GRID*               2066               02.0000000000E+01-8.376437911E+01+
*       -3.301140219E+00               0
GRID*               2067               02.0000000000E+01-7.852826318E+01+
*       -6.671726228E+00               0
GRID*               2068               02.0000000000E+01-7.309285382E+01+
*       -9.643955459E+00               0
GRID*               2069               02.0000000000E+01-6.758053709E+01+
*       -1.211140580E+01               0
GRID*               2070               02.0000000000E+01-6.213316142E+01+
*       -1.448408454E+01               0
GRID*               2071               02.0000000000E+01-5.666415652E+01+
*       -1.690280614E+01               0
GRID*               2072               02.0000000000E+01-5.115668570E+01+
*       -1.948605924E+01               0
GRID*               2073               02.0000000000E+01-3.609282120E+01+
*       -1.126384102E+01               0
GRID*               2074               02.0000000000E+01-3.604857887E+01+
*       -8.502889359E+00               0
GRID*               2075               02.0000000000E+01-3.606834126E+01+
*       -5.904383990E+00               0
GRID*               2076               02.0000000000E+01-3.691048836E+01+
*       -3.103584914E+00               0
GRID*               2077               02.0000000000E+01-3.707878473E+01+
*       -3.572251459E-02               0
GRID*               2078               02.0000000000E+01-3.311227368E+01+
*       -5.517739007E-01               0
GRID*               2079               02.0000000000E+01-3.488638530E+01+
*       -1.661174235E+00               0
GRID*               2080               02.0000000000E+01-3.474437445E+01+
*       2.1126159416E-01               0
GRID*               2081               02.0000000000E+01-3.076397728E+01+
*       -8.788020172E-01               0
GRID*               2082               02.0000000000E+01-3.178479890E+01+
*       -1.601920852E+00               0
GRID*               2083               02.0000000000E+01-3.308622002E+01+
*       -2.491790079E+00               0
GRID*               2084               02.0000000000E+01-3.451229511E+01+
*       -3.841519431E+00               0
GRID*               2085               02.0000000000E+01-3.166136291E+01+
*       -3.949676113E-01               0
GRID*               2086               02.0000000000E+01-3.345289920E+01+
*       -9.400098690E+00               0
GRID*               2087               02.0000000000E+01-3.361952274E+01+
*       -5.708212900E+00               0
GRID*               2088               02.0000000000E+01-3.431923751E+01+
*       -7.348995628E+00               0
GRID*               2089               02.0000000000E+01-3.051074385E+01+
*       -2.174477401E+00               0
GRID*               2090               02.0000000000E+01-3.162418302E+01+
*       -3.023427935E+00               0
GRID*               2091               02.0000000000E+01-3.262361307E+01+
*       -4.163155878E+00               0
GRID*               2092               02.0000000000E+01-3.058286490E+01+
*       -3.359688675E+00               0
GRID*               2093               02.0000000000E+01-3.250777265E+01+
*       -7.227868878E+00               0
GRID*               2094               02.0000000000E+01-3.115237436E+01+
*       -4.276681000E+00               0
GRID*               2095               02.0000000000E+01-3.182053420E+01+
*       -5.589803434E+00               0
GRID*               2096               02.0000000000E+01-9.451562510E+01+
*       9.1484138904E+00               0
GRID*               2097               02.0000000000E+01-8.897408364E+01+
*       6.1481948691E+00               0
GRID*               2098               02.0000000000E+01-8.338460687E+01+
*       2.8830677720E+00               0
GRID*               2099               02.0000000000E+01-7.823128741E+01+
*       -6.858346326E-01               0
GRID*               2100               02.0000000000E+01-7.341772821E+01+
*       -3.779416534E+00               0
GRID*               2101               02.0000000000E+01-6.829308336E+01+
*       -6.236125991E+00               0
GRID*               2102               02.0000000000E+01-6.291188597E+01+
*       -8.558633271E+00               0
GRID*               2103               02.0000000000E+01-5.737246504E+01+
*       -1.086751958E+01               0
GRID*               2104               02.0000000000E+01-5.161946085E+01+
*       -1.325104828E+01               0
GRID*               2105               02.0000000000E+01-4.582138152E+01+
*       -1.587015617E+01               0
GRID*               2106               02.0000000000E+01-8.357824986E+01+
*       1.5490558901E+01               0
GRID*               2107               02.0000000000E+01-8.901755359E+01+
*       1.2283406673E+01               0
GRID*               2108               02.0000000000E+01-9.455934107E+01+
*       1.5163118441E+01               0
GRID*               2109               02.0000000000E+01-8.917387290E+01+
*       1.8295436716E+01               0
GRID*               2110               02.0000000000E+01-9.463193355E+01+
*       2.1129005583E+01               0
GRID*               2111               02.0000000000E+01-3.986939737E+01+
*       -1.895299311E+00               0
GRID*               2112               02.0000000000E+01-4.383477651E+01+
*       4.5912732769E-01               0
GRID*               2113               02.0000000000E+01-4.951155517E+01+
*       2.3529455145E+00               0
GRID*               2114               02.0000000000E+01-5.518813518E+01+
*       4.3645062234E+00               0
GRID*               2115               02.0000000000E+01-6.071068910E+01+
*       6.2303144180E+00               0
GRID*               2116               02.0000000000E+01-6.610195372E+01+
*       8.1791727706E+00               0
GRID*               2117               02.0000000000E+01-7.177605797E+01+
*       1.0186484340E+01               0
GRID*               2118               02.0000000000E+01-7.775852536E+01+
*       1.2605743881E+01               0
GRID*               2119               02.0000000000E+01-3.988953098E+01+
*       1.1418116649E+00               0
GRID*               2120               02.0000000000E+01-8.328965956E+01+
*       9.2160053056E+00               0
GRID*               2121               02.0000000000E+01-7.688359904E+01+
*       5.7043862102E+00               0
GRID*               2122               02.0000000000E+01-7.028339151E+01+
*       4.5333845214E+00               0
GRID*               2123               02.0000000000E+01-7.350773539E+01+
*       9.6296230200E-01               0
GRID*               2124               02.0000000000E+01-3.796381735E+01+
*       -7.433855256E+00               0
GRID*               2125               02.0000000000E+01-4.285266883E+01+
*       -4.470836621E+00               0
GRID*               2126               02.0000000000E+01-4.809488525E+01+
*       -3.166503035E+00               0
GRID*               2127               02.0000000000E+01-5.384834897E+01+
*       -1.265796427E+00               0
GRID*               2128               02.0000000000E+01-5.945517328E+01+
*       7.4521434627E-01               0
GRID*               2129               02.0000000000E+01-6.489510541E+01+
*       2.7044067371E+00               0
GRID*               2130               02.0000000000E+01-3.901404435E+01+
*       -5.129569266E+00               0
GRID*               2131               02.0000000000E+01-6.904293235E+01+
*       -7.639303128E-01               0
GRID*               2132               02.0000000000E+01-6.382799343E+01+
*       -2.837878405E+00               0
GRID*               2133               02.0000000000E+01-4.601426075E+01+
*       -9.194448561E+00               0
GRID*               2134               02.0000000000E+01-4.064545009E+01+
*       -7.973301256E+00               0
GRID*               2135               02.0000000000E+01-3.814349752E+01+
*       -9.432963493E+00               0
GRID*               2136               02.0000000000E+01-4.043542911E+01+
*       -1.247728601E+01               0
GRID*               2137               02.0000000000E+01-5.833912909E+01+
*       -4.975452811E+00               0
GRID*               2138               02.0000000000E+01-5.257632783E+01+
*       -7.106698230E+00               0
GRID*               2139               02.0000000000E+01-3.386722245E+01+
*       3.0753986861E+00               0
GRID*               2140               02.0000000000E+01-3.259697885E+01+
*       4.1302370758E+00               0
GRID*               2141               02.0000000000E+01-3.152101541E+01+
*       5.0920691277E+00               0
GRID*               2142               02.0000000000E+01-3.207246531E+01+
*       2.4829775272E+00               0
GRID*               2143               02.0000000000E+01-3.070157034E+01+
*       1.5706388809E+00               0
GRID*               2144               02.0000000000E+01-3.112055296E+01+
*       3.7573037810E+00               0
GRID*               2145               02.0000000000E+01-3.069238690E+01+
*       2.7159665581E+00               0
GRID*               2146               02.0000000000E+01-4.212248497E+01+
*       6.9142703321E+00               0
GRID*               2147               02.0000000000E+01-3.912053454E+01+
*       6.1483550285E+00               0
GRID*               2148               02.0000000000E+01-3.626427783E+01+
*       5.4917302693E+00               0
GRID*               2149               02.0000000000E+01-3.418266592E+01+
*       4.7771508929E+00               0
GRID*               2150               02.0000000000E+01-3.542790530E+01+
*       3.6966491695E+00               0
GRID*               2151               02.0000000000E+01-3.284613086E+01+
*       5.4573548541E+00               0
GRID*               2152               02.0000000000E+01-8.418010329E+01+
*       2.7101601490E+01               0
GRID*               2153               02.0000000000E+01-8.950455726E+01+
*       2.9972175970E+01               0
GRID*               2154               02.0000000000E+01-9.477572984E+01+
*       3.2931820121E+01               0
GRID*               2155               02.0000000000E+01-7.880386181E+01+
*       2.4258389963E+01               0
GRID*               2156               02.0000000000E+01-7.340628441E+01+
*       2.1500567554E+01               0
GRID*               2157               02.0000000000E+01-6.806467433E+01+
*       1.8877293050E+01               0
GRID*               2158               02.0000000000E+01-6.289805687E+01+
*       1.6429627000E+01               0
GRID*               2159               02.0000000000E+01-5.398945966E+01+
*       1.2517421851E+01               0
GRID*               2160               02.0000000000E+01-5.805668437E+01+
*       1.4212157447E+01               0
GRID*               2161               02.0000000000E+013.1795103418E+01+
*       1.1436854583E+01               0
GRID*               2162               02.0000000000E+013.0339771850E+01+
*       1.0884442672E+01               0
GRID*               2163               02.0000000000E+013.0892521753E+01+
*       1.2214238837E+01               0
GRID*               2164               02.0000000000E+012.5037951607E+01+
*       5.9103751038E+00               0
GRID*               2165               02.0000000000E+012.5448872544E+01+
*       6.1899345303E+00               0
GRID*               2166               02.0000000000E+012.5490959389E+01+
*       5.7683351397E+00               0
GRID*               2167               02.0000000000E+012.4603264756E+01+
*       6.1199510038E+00               0
GRID*               2168               02.0000000000E+012.4223646870E+01+
*       6.4325000249E+00               0
GRID*               2169               02.0000000000E+012.4616246877E+01+
*       6.6445235155E+00               0
GRID*               2170               02.0000000000E+012.3750044296E+01+
*       6.6363977837E+00               0
GRID*               2171               02.0000000000E+012.3212283078E+01+
*       6.9273458978E+00               0
GRID*               2172               02.0000000000E+012.2686489651E+01+
*       7.1329124802E+00               0
GRID*               2173               02.0000000000E+012.3698867773E+01+
*       7.2480206507E+00               0
GRID*               2174               02.0000000000E+012.4941188779E+01+
*       7.8468199190E+00               0
GRID*               2175               02.0000000000E+012.4953717971E+01+
*       8.7831074288E+00               0
GRID*               2176               02.0000000000E+012.5631726164E+01+
*       8.3255519930E+00               0
GRID*               2177               02.0000000000E+012.4249904788E+01+
*       7.6307239457E+00               0
GRID*               2178               02.0000000000E+012.3712143571E+01+
*       7.9216720598E+00               0
GRID*               2179               02.0000000000E+012.4927912981E+01+
*       7.1731685099E+00               0
GRID*               2180               02.0000000000E+012.5307530867E+01+
*       6.8606194888E+00               0
GRID*               2181               02.0000000000E+012.5760538649E+01+
*       6.7185795247E+00               0
GRID*               2182               02.0000000000E+012.9994505030E+01+
*       8.8042427336E+00               0
GRID*               2183               02.0000000000E+012.9962103605E+01+
*       7.8899383036E+00               0
GRID*               2184               02.0000000000E+012.9201717645E+01+
*       8.4389756870E+00               0
GRID*               2185               02.0000000000E+013.0238236293E+01+
*       9.7301692672E+00               0
GRID*               2186               02.0000000000E+012.9335654628E+01+
*       1.0507553522E+01               0
GRID*               2187               02.0000000000E+013.0998622253E+01+
*       9.1811318839E+00               0
GRID*               2188               02.0000000000E+012.8297772106E+01+
*       9.8969581762E+00               0
GRID*               2189               02.0000000000E+012.8399307663E+01+
*       1.1051231581E+01               0
GRID*               2190               02.0000000000E+012.7392131986E+01+
*       9.3221446545E+00               0
GRID*               2191               02.0000000000E+012.8328478951E+01+
*       8.7784665952E+00               0
GRID*               2192               02.0000000000E+012.6533547093E+01+
*       8.7327462881E+00               0
GRID*               2193               02.0000000000E+012.6521017901E+01+
*       7.7964587784E+00               0
GRID*               2194               02.0000000000E+012.6502840249E+01+
*       9.8512378692E+00               0
GRID*               2195               02.0000000000E+012.6272453035E+01+
*       7.0115591890E+00               0
GRID*               2196               02.0000000000E+012.6413794712E+01+
*       6.3408742305E+00               0
GRID*               2197               02.0000000000E+012.8296077525E+01+
*       7.8641621652E+00               0
GRID*               2198               02.0000000000E+012.7174273964E+01+
*       7.4187534841E+00               0
GRID*               2199               02.0000000000E+012.7728813923E+01+
*       7.5148174852E+00               0
GRID*               2200               02.0000000000E+012.8602052617E+01+
*       7.1753265769E+00               0
GRID*               2201               02.0000000000E+012.7480249056E+01+
*       6.7299178958E+00               0
GRID*               2202               02.0000000000E+012.5916409745E+01+
*       5.5396454866E+00               0
GRID*               2203               02.0000000000E+012.9835205808E+01+
*       7.0587844940E+00               0
GRID*               2204               02.0000000000E+013.0627993194E+01+
*       7.4240515406E+00               0
GRID*               2205               02.0000000000E+012.6387639410E+01+
*       5.2759902591E+00               0
GRID*               2206               02.0000000000E+012.6799716592E+01+
*       5.0245725561E+00               0
GRID*               2207               02.0000000000E+012.6373109991E+01+
*       5.7842393387E+00               0
GRID*               2208               02.0000000000E+012.6885024376E+01+
*       6.0772190030E+00               0
GRID*               2209               02.0000000000E+012.9063115085E+01+
*       6.7081814434E+00               0
GRID*               2210               02.0000000000E+012.9729004674E+01+
*       6.2422946805E+00               0
GRID*               2211               02.0000000000E+012.8495851483E+01+
*       6.3588367634E+00               0
GRID*               2212               02.0000000000E+012.8332189415E+01+
*       5.9265860632E+00               0
GRID*               2213               02.0000000000E+012.8417498702E+01+
*       5.4022913037E+00               0
GRID*               2214               02.0000000000E+012.7792774166E+01+
*       5.4371857370E+00               0
GRID*               2215               02.0000000000E+012.7871126947E+01+
*       6.3937311967E+00               0
GRID*               2216               02.0000000000E+012.7316586989E+01+
*       6.2976671956E+00               0
GRID*               2217               02.0000000000E+012.7275902268E+01+
*       5.7410323039E+00               0
GRID*               2218               02.0000000000E+012.7361211554E+01+
*       5.2167375443E+00               0
GRID*               2219               02.0000000000E+012.7316588491E+01+
*       4.7207259893E+00               0
GRID*               2220               02.0000000000E+012.9301561166E+01+
*       2.8117985523E+00               0
GRID*               2221               02.0000000000E+012.9575157531E+01+
*       2.4139986388E+00               0
GRID*               2222               02.0000000000E+012.8966547245E+01+
*       3.0981495693E+00               0
GRID*               2223               02.0000000000E+012.8635028584E+01+
*       3.4491243642E+00               0
GRID*               2224               02.0000000000E+012.9329883547E+01+
*       3.2719283291E+00               0
GRID*               2225               02.0000000000E+012.9350563809E+01+
*       3.7045781485E+00               0
GRID*               2226               02.0000000000E+012.9685577731E+01+
*       3.4182271314E+00               0
GRID*               2227               02.0000000000E+012.9654265357E+01+
*       5.3854757086E+00               0
GRID*               2228               02.0000000000E+012.9692440740E+01+
*       4.6918496169E+00               0
GRID*               2229               02.0000000000E+012.8995089334E+01+
*       5.1980655382E+00               0
GRID*               2230               02.0000000000E+013.0426356080E+01+
*       5.7360787592E+00               0
GRID*               2231               02.0000000000E+012.9369761355E+01+
*       4.1776581986E+00               0
GRID*               2232               02.0000000000E+012.9014067171E+01+
*       4.0313593963E+00               0
GRID*               2233               02.0000000000E+013.0028937378E+01+
*       4.3650683691E+00               0
GRID*               2234               02.0000000000E+012.8671811942E+01+
*       3.7985903589E+00               0
GRID*               2235               02.0000000000E+012.8691009487E+01+
*       4.2716704090E+00               0
GRID*               2236               02.0000000000E+012.8311970900E+01+
*       3.6894353769E+00               0
GRID*               2237               02.0000000000E+012.7944750967E+01+
*       4.0031483715E+00               0
GRID*               2238               02.0000000000E+012.7709415565E+01+
*       4.4401431745E+00               0
GRID*               2239               02.0000000000E+012.8455674085E+01+
*       4.7086652120E+00               0
GRID*               2240               02.0000000000E+012.8113418856E+01+
*       4.4758961745E+00               0
GRID*               2241               02.0000000000E+012.7783615941E+01+
*       -4.296073874E+00               0
GRID*               2242               02.0000000000E+012.8177467745E+01+
*       -3.975151777E+00               0
GRID*               2243               02.0000000000E+012.7361058540E+01+
*       -4.607476018E+00               0
GRID*               2244               02.0000000000E+012.6941624954E+01+
*       -4.893576922E+00               0
GRID*               2245               02.0000000000E+012.7802918361E+01+
*       -4.785596482E+00               0
GRID*               2246               02.0000000000E+012.8264081155E+01+
*       -5.031548209E+00               0
GRID*               2247               02.0000000000E+012.7841523755E+01+
*       -5.342950353E+00               0
GRID*               2248               02.0000000000E+013.0194336047E+01+
*       -6.392096694E+00               0
GRID*               2249               02.0000000000E+012.9949007567E+01+
*       -5.643749539E+00               0
GRID*               2250               02.0000000000E+013.0681979268E+01+
*       -5.876722396E+00               0
GRID*               2251               02.0000000000E+012.9180969002E+01+
*       -2.910047857E+00               0
GRID*               2252               02.0000000000E+012.9478887621E+01+
*       -2.498591566E+00               0
GRID*               2253               02.0000000000E+012.8555376975E+01+
*       -3.612750700E+00               0
GRID*               2254               02.0000000000E+012.8603384991E+01+
*       -4.111793261E+00               0
GRID*               2255               02.0000000000E+012.8911492186E+01+
*       -3.250931606E+00               0
GRID*               2256               02.0000000000E+012.9250771037E+01+
*       -3.408508436E+00               0
GRID*               2257               02.0000000000E+012.9466574579E+01+
*       -3.839674936E+00               0
GRID*               2258               02.0000000000E+012.9736051396E+01+
*       -3.498791188E+00               0
GRID*               2259               02.0000000000E+012.9341733979E+01+
*       -5.493098410E+00               0
GRID*               2260               02.0000000000E+012.8882025447E+01+
*       -5.874012958E+00               0
GRID*               2261               02.0000000000E+012.8762395080E+01+
*       -5.207987531E+00               0
GRID*               2262               02.0000000000E+012.9829377200E+01+
*       -4.977724112E+00               0
GRID*               2263               02.0000000000E+012.9586979275E+01+
*       -4.378515336E+00               0
GRID*               2264               02.0000000000E+013.0194252863E+01+
*       -4.529166464E+00               0
GRID*               2265               02.0000000000E+012.8723789687E+01+
*       -4.650633661E+00               0
GRID*               2266               02.0000000000E+012.9101698916E+01+
*       -4.288232584E+00               0
GRID*               2267               02.0000000000E+019.7401999030E+01+
*       -3.744584986E+01               0
GRID*               2268               02.0000000000E+019.7401999030E+01+
*       -4.044584986E+01               0
GRID*               2269               02.0000000000E+019.4793201161E+01+
*       -3.593680034E+01               0
GRID*               2270               02.0000000000E+019.2217097299E+01+
*       -3.737651818E+01               0
GRID*               2271               02.0000000000E+019.2206300400E+01+
*       -3.442161881E+01               0
GRID*               2272               02.0000000000E+019.7391202131E+01+
*       -3.449095049E+01               0
GRID*               2273               02.0000000000E+019.7391202131E+01+
*       -3.149095049E+01               0
GRID*               2274               02.0000000000E+019.7338924635E+01+
*       -2.256233893E+01               0
GRID*               2275               02.0000000000E+019.7371045949E+01+
*       -2.553182317E+01               0
GRID*               2276               02.0000000000E+019.4709970584E+01+
*       -2.409416210E+01               0
GRID*               2277               02.0000000000E+019.7338924635E+01+
*       -1.956233893E+01               0
GRID*               2278               02.0000000000E+019.7371045949E+01+
*       -2.853182317E+01               0
GRID*               2279               02.0000000000E+019.4762248080E+01+
*       -3.002277365E+01               0
GRID*               2280               02.0000000000E+018.9604562547E+01+
*       -3.295382582E+01               0
GRID*               2281               02.0000000000E+018.7072011418E+01+
*       -3.439799147E+01               0
GRID*               2282               02.0000000000E+018.7046377425E+01+
*       -3.149048065E+01               0
GRID*               2283               02.0000000000E+019.2180666408E+01+
*       -3.151410799E+01               0
GRID*               2284               02.0000000000E+019.2160510226E+01+
*       -2.855498067E+01               0
GRID*               2285               02.0000000000E+019.2096303823E+01+
*       -2.563520883E+01               0
GRID*               2286               02.0000000000E+019.2064182509E+01+
*       -2.266572459E+01               0
GRID*               2287               02.0000000000E+018.9514722151E+01+
*       -2.712654316E+01               0
GRID*               2288               02.0000000000E+018.4438746662E+01+
*       -3.008048587E+01               0
GRID*               2289               02.0000000000E+018.1995747635E+01+
*       -3.154881091E+01               0
GRID*               2290               02.0000000000E+018.1920668001E+01+
*       -2.869465049E+01               0
GRID*               2291               02.0000000000E+018.6971297791E+01+
*       -2.863632023E+01               0
GRID*               2292               02.0000000000E+018.6907091388E+01+
*       -2.571654839E+01               0
GRID*               2293               02.0000000000E+019.7305180982E+01+
*       -1.357616880E+01               0
GRID*               2294               02.0000000000E+019.4570788957E+01+
*       -1.215082991E+01               0
GRID*               2295               02.0000000000E+019.7265607975E+01+
*       -1.057466111E+01               0
GRID*               2296               02.0000000000E+019.7305180982E+01+
*       -1.657616880E+01               0
GRID*               2297               02.0000000000E+019.4644105617E+01+
*       -1.813850774E+01               0
GRID*               2298               02.0000000000E+018.6345645903E+01+
*       -7.897983353E+00               0
GRID*               2299               02.0000000000E+018.3560127971E+01+
*       -6.470422825E+00               0
GRID*               2300               02.0000000000E+018.6213515394E+01+
*       -4.861970411E+00               0
GRID*               2301               02.0000000000E+018.6803126056E+01+
*       -2.281037676E+01               0
GRID*               2302               02.0000000000E+018.4259701697E+01+
*       -2.432015383E+01               0
GRID*               2303               02.0000000000E+018.9088854777E+01+
*       -9.304116078E+00               0
GRID*               2304               02.0000000000E+019.1765124638E+01+
*       -7.719426575E+00               0
GRID*               2305               02.0000000000E+019.1854946089E+01+
*       -1.073401171E+01               0
GRID*               2306               02.0000000000E+018.6435467354E+01+
*       -1.091256849E+01               0
GRID*               2307               02.0000000000E+018.6552699179E+01+
*       -1.391079977E+01               0
GRID*               2308               02.0000000000E+018.3809490306E+01+
*       -1.250466704E+01               0
GRID*               2309               02.0000000000E+018.6630780060E+01+
*       -1.689562538E+01               0
GRID*               2310               02.0000000000E+018.9256757109E+01+
*       -1.530352683E+01               0
GRID*               2311               02.0000000000E+018.6745287177E+01+
*       -1.985116732E+01               0
GRID*               2312               02.0000000000E+018.9392676869E+01+
*       -2.124756188E+01               0
GRID*               2313               02.0000000000E+018.4041229248E+01+
*       -1.845844026E+01               0
GRID*               2314               02.0000000000E+019.2006343630E+01+
*       -1.970651515E+01               0
GRID*               2315               02.0000000000E+019.1972599977E+01+
*       -1.672034502E+01               0
GRID*               2316               02.0000000000E+019.1894519096E+01+
*       -1.373551941E+01               0
GRID*               2317               02.0000000000E+017.2488297413E+01+
*       -8.736318513E-01               0
GRID*               2318               02.0000000000E+017.5076023560E+01+
*       7.9512640839E-01               0
GRID*               2319               02.0000000000E+017.5264798278E+01+
*       -2.272306604E+00               0
GRID*               2320               02.0000000000E+016.9722550972E+01+
*       5.0261834307E-01               0
GRID*               2321               02.0000000000E+016.6954328821E+01+
*       1.8876103804E+00               0
GRID*               2322               02.0000000000E+016.9531300544E+01+
*       3.5787931984E+00               0
GRID*               2323               02.0000000000E+016.9911325690E+01+
*       -2.564814669E+00               0
GRID*               2324               02.0000000000E+017.0126654774E+01+
*       -5.619811621E+00               0
GRID*               2325               02.0000000000E+016.7360908333E+01+
*       -4.243561426E+00               0
GRID*               2326               02.0000000000E+017.9333181738E+01+
*       -2.733332371E+01               0
GRID*               2327               02.0000000000E+017.6954514542E+01+
*       -2.888118812E+01               0
GRID*               2328               02.0000000000E+017.6810027306E+01+
*       -2.605153631E+01               0
GRID*               2329               02.0000000000E+018.1776180765E+01+
*       -2.586499868E+01               0
GRID*               2330               02.0000000000E+018.1672215434E+01+
*       -2.295882705E+01               0
GRID*               2331               02.0000000000E+017.4191900527E+01+
*       -2.473845795E+01               0
GRID*               2332               02.0000000000E+017.1816922705E+01+
*       -2.637258906E+01               0
GRID*               2333               02.0000000000E+017.1577463121E+01+
*       -2.351164629E+01               0
GRID*               2334               02.0000000000E+017.6570567723E+01+
*       -2.319059354E+01               0
GRID*               2335               02.0000000000E+017.9026887629E+01+
*       -2.159133494E+01               0
GRID*               2336               02.0000000000E+017.6408760849E+01+
*       -2.027825658E+01               0
GRID*               2337               02.0000000000E+018.1510408560E+01+
*       -2.004649009E+01               0
GRID*               2338               02.0000000000E+018.1395901443E+01+
*       -1.709094815E+01               0
GRID*               2339               02.0000000000E+017.8024267989E+01+
*       -3.656758844E+00               0
GRID*               2340               02.0000000000E+017.5436541842E+01+
*       -5.325517104E+00               0
GRID*               2341               02.0000000000E+018.0812004508E+01+
*       -5.072189614E+00               0
GRID*               2342               02.0000000000E+018.0944135017E+01+
*       -8.108202556E+00               0
GRID*               2343               02.0000000000E+018.0640260944E+01+
*       -2.018979114E+00               0
GRID*               2344               02.0000000000E+017.2878236323E+01+
*       -6.975708820E+00               0
GRID*               2345               02.0000000000E+017.5637706034E+01+
*       -8.360161060E+00               0
GRID*               2346               02.0000000000E+017.0327818966E+01+
*       -8.654455577E+00               0
GRID*               2347               02.0000000000E+017.0568556909E+01+
*       -1.167568814E+01               0
GRID*               2348               02.0000000000E+016.7816975360E+01+
*       -1.031979094E+01               0
GRID*               2349               02.0000000000E+018.1233580518E+01+
*       -1.412034990E+01               0
GRID*               2350               02.0000000000E+017.8702759830E+01+
*       -1.570839974E+01               0
GRID*               2351               02.0000000000E+018.1116348692E+01+
*       -1.112211863E+01               0
GRID*               2352               02.0000000000E+017.8368225229E+01+
*       -9.723885419E+00               0
GRID*               2353               02.0000000000E+017.1272005784E+01+
*       -2.058509346E+01               0
GRID*               2354               02.0000000000E+016.8897027961E+01+
*       -2.221922457E+01               0
GRID*               2355               02.0000000000E+017.1056024716E+01+
*       -1.764288643E+01               0
GRID*               2356               02.0000000000E+017.3736459876E+01+
*       -1.893530815E+01               0
GRID*               2357               02.0000000000E+017.0789096056E+01+
*       -1.466706231E+01               0
GRID*               2358               02.0000000000E+017.3299939662E+01+
*       -1.300172695E+01               0
GRID*               2359               02.0000000000E+016.8324641964E+01+
*       -1.631684762E+01               0
GRID*               2360               02.0000000000E+017.6192779781E+01+
*       -1.733604955E+01               0
GRID*               2361               02.0000000000E+017.5809919710E+01+
*       -1.137407714E+01               0
GRID*               2362               02.0000000000E+017.6030458856E+01+
*       -1.436545130E+01               0
GRID*               2363               02.0000000000E+016.8404955966E+01+
*       3.4053956480E+01               0
GRID*               2364               02.0000000000E+016.8316066185E+01+
*       3.6931388927E+01               0
GRID*               2365               02.0000000000E+017.0822240964E+01+
*       3.5662549229E+01               0
GRID*               2366               02.0000000000E+016.8486972793E+01+
*       2.8211924585E+01               0
GRID*               2367               02.0000000000E+016.8506609154E+01+
*       2.5188779185E+01               0
GRID*               2368               02.0000000000E+016.5912498111E+01+
*       2.6543861000E+01               0
GRID*               2369               02.0000000000E+016.8401996247E+01+
*       3.1176061591E+01               0
GRID*               2370               02.0000000000E+016.5895821468E+01+
*       3.2444901289E+01               0
GRID*               2371               02.0000000000E+017.0996107291E+01+
*       2.9820979776E+01               0
GRID*               2372               02.0000000000E+016.8622641256E+01+
*       2.2145240068E+01               0
GRID*               2373               02.0000000000E+016.8720163519E+01+
*       1.9056964226E+01               0
GRID*               2374               02.0000000000E+016.6029656734E+01+
*       2.0432439759E+01               0
GRID*               2375               02.0000000000E+017.1197115939E+01+
*       2.3813303653E+01               0
GRID*               2376               02.0000000000E+016.9360723070E+01+
*       6.6733752806E+00               0
GRID*               2377               02.0000000000E+017.2128945221E+01+
*       5.2883832432E+00               0
GRID*               2378               02.0000000000E+016.8871609823E+01+
*       1.5967384600E+01               0
GRID*               2379               02.0000000000E+017.1464594345E+01+
*       1.7680184909E+01               0
GRID*               2380               02.0000000000E+016.9017764097E+01+
*       1.2869267262E+01               0
GRID*               2381               02.0000000000E+016.6273333271E+01+
*       1.4246046578E+01               0
GRID*               2382               02.0000000000E+016.9188927646E+01+
*       9.7654472827E+00               0
GRID*               2383               02.0000000000E+016.6591282969E+01+
*       8.0558572379E+00               0
GRID*               2384               02.0000000000E+017.1787204199E+01+
*       1.1486785304E+01               0
GRID*               2385               02.0000000000E+019.7265607975E+01+
*       -7.574661106E+00               0
GRID*               2386               02.0000000000E+019.4491371053E+01+
*       -6.125566792E+00               0
GRID*               2387               02.0000000000E+019.7225763078E+01+
*       -4.550905686E+00               0
GRID*               2388               02.0000000000E+019.1725279741E+01+
*       -4.695671155E+00               0
GRID*               2389               02.0000000000E+018.8911895291E+01+
*       -3.230149624E+00               0
GRID*               2390               02.0000000000E+019.1638141706E+01+
*       -1.636289841E+00               0
GRID*               2391               02.0000000000E+018.6126377359E+01+
*       -1.802589097E+00               0
GRID*               2392               02.0000000000E+018.3296208357E+01+
*       -3.470408592E-01               0
GRID*               2393               02.0000000000E+018.5994588254E+01+
*       1.2847799274E+00               0
GRID*               2394               02.0000000000E+017.4915621537E+01+
*       3.8915680627E+00               0
GRID*               2395               02.0000000000E+017.7692122402E+01+
*       2.4928933101E+00               0
GRID*               2396               02.0000000000E+017.4745044064E+01+
*       6.9861501449E+00               0
GRID*               2397               02.0000000000E+018.0508471839E+01+
*       1.0683899103E+00               0
GRID*               2398               02.0000000000E+018.0348069816E+01+
*       4.1648315646E+00               0
GRID*               2399               02.0000000000E+019.7225763078E+01+
*       -1.550905686E+00               0
GRID*               2400               02.0000000000E+019.4399509907E+01+
*       -4.082763631E-02               0
GRID*               2401               02.0000000000E+019.7173746829E+01+
*       1.5100780496E+00               0
GRID*               2402               02.0000000000E+019.1586125457E+01+
*       1.4246938945E+00               0
GRID*               2403               02.0000000000E+018.8706810059E+01+
*       2.9555793920E+00               0
GRID*               2404               02.0000000000E+019.1468178260E+01+
*       4.5510415966E+00               0
GRID*               2405               02.0000000000E+018.5876641058E+01+
*       4.4111276295E+00               0
GRID*               2406               02.0000000000E+018.2994675250E+01+
*       5.8849799535E+00               0
GRID*               2407               02.0000000000E+018.5706897055E+01+
*       7.5557794181E+00               0
GRID*               2408               02.0000000000E+017.4562212743E+01+
*       1.0110708848E+01               0
GRID*               2409               02.0000000000E+017.7348889059E+01+
*       8.7138936673E+00               0
GRID*               2410               02.0000000000E+017.4391049194E+01+
*       1.3214528827E+01               0
GRID*               2411               02.0000000000E+018.0178325813E+01+
*       7.3094833532E+00               0
GRID*               2412               02.0000000000E+017.9995494493E+01+
*       1.0434042056E+01               0
GRID*               2413               02.0000000000E+017.3268451180E+01+
*       3.7340006443E+01               0
GRID*               2414               02.0000000000E+017.3357340961E+01+
*       3.4462573996E+01               0
GRID*               2415               02.0000000000E+017.3140469844E+01+
*       4.0234016147E+01               0
GRID*               2416               02.0000000000E+017.5675569841E+01+
*       3.9034040913E+01               0
GRID*               2417               02.0000000000E+017.3489082759E+01+
*       3.1517439205E+01               0
GRID*               2418               02.0000000000E+017.5935292975E+01+
*       3.3194896418E+01               0
GRID*               2419               02.0000000000E+017.4192533114E+01+
*       1.6335135372E+01               0
GRID*               2420               02.0000000000E+017.6967541659E+01+
*       1.4959058916E+01               0
GRID*               2421               02.0000000000E+017.4041086810E+01+
*       1.9424714998E+01               0
GRID*               2422               02.0000000000E+017.3849146127E+01+
*       2.2499377654E+01               0
GRID*               2423               02.0000000000E+017.6577084895E+01+
*       2.1154328117E+01               0
GRID*               2424               02.0000000000E+017.3574059305E+01+
*       2.8553302199E+01               0
GRID*               2425               02.0000000000E+017.3733114024E+01+
*       2.5542916772E+01               0
GRID*               2426               02.0000000000E+017.6226089493E+01+
*       2.7239376201E+01               0
GRID*               2427               02.0000000000E+017.8086658385E+01+
*       4.0763012282E+01               0
GRID*               2428               02.0000000000E+017.8214639721E+01+
*       3.7869002578E+01               0
GRID*               2429               02.0000000000E+017.7948388868E+01+
*       4.3675309359E+01               0
GRID*               2430               02.0000000000E+018.0487458749E+01+
*       4.2510271024E+01               0
GRID*               2431               02.0000000000E+017.8363915958E+01+
*       3.4929675171E+01               0
GRID*               2432               02.0000000000E+017.8495657756E+01+
*       3.1984540380E+01               0
GRID*               2433               02.0000000000E+018.0775004503E+01+
*       3.6658646540E+01               0
GRID*               2434               02.0000000000E+017.8685053920E+01+
*       2.9002919963E+01               0
GRID*               2435               02.0000000000E+017.8844108639E+01+
*       2.5992534536E+01               0
GRID*               2436               02.0000000000E+018.1113676903E+01+
*       3.0737698716E+01               0
GRID*               2437               02.0000000000E+017.9762905110E+01+
*       1.3613628692E+01               0
GRID*               2438               02.0000000000E+018.2592341864E+01+
*       1.2209218378E+01               0
GRID*               2439               02.0000000000E+017.9093707011E+01+
*       2.2943812221E+01               0
GRID*               2440               02.0000000000E+017.9285647694E+01+
*       1.9869149565E+01               0
GRID*               2441               02.0000000000E+018.1552671438E+01+
*       2.4707355984E+01               0
GRID*               2442               02.0000000000E+017.9564389030E+01+
*       1.6734235237E+01               0
GRID*               2443               02.0000000000E+018.2081011145E+01+
*       1.8523719341E+01               0
GRID*               2444               02.0000000000E+018.2880305150E+01+
*       4.4273524423E+01               0
GRID*               2445               02.0000000000E+018.3018574668E+01+
*       4.1361227345E+01               0
GRID*               2446               02.0000000000E+018.2754605430E+01+
*       4.7206635716E+01               0
GRID*               2447               02.0000000000E+018.5285721349E+01+
*       4.6057592038E+01               0
GRID*               2448               02.0000000000E+018.3155269668E+01+
*       3.8418497833E+01               0
GRID*               2449               02.0000000000E+018.3304545905E+01+
*       3.5479170425E+01               0
GRID*               2450               02.0000000000E+018.5548116070E+01+
*       4.0181751231E+01               0
GRID*               2451               02.0000000000E+018.3485778665E+01+
*       3.2520520026E+01               0
GRID*               2452               02.0000000000E+018.3675174829E+01+
*       2.9538899609E+01               0
GRID*               2453               02.0000000000E+018.5866043831E+01+
*       3.4280371319E+01               0
GRID*               2454               02.0000000000E+018.3948061742E+01+
*       2.6549743528E+01               0
GRID*               2455               02.0000000000E+018.4197660114E+01+
*       2.3501021213E+01               0
GRID*               2456               02.0000000000E+018.6320163504E+01+
*       2.8332564838E+01               0
GRID*               2457               02.0000000000E+018.5519016863E+01+
*       1.0805318642E+01               0
GRID*               2458               02.0000000000E+018.8400982671E+01+
*       9.3314663181E+00               0
GRID*               2459               02.0000000000E+018.4621025789E+01+
*       2.0395847048E+01               0
GRID*               2460               02.0000000000E+018.4899767125E+01+
*       1.7260932720E+01               0
GRID*               2461               02.0000000000E+018.7016416094E+01+
*       2.2238234591E+01               0
GRID*               2462               02.0000000000E+018.5286427480E+01+
*       1.3984905278E+01               0
GRID*               2463               02.0000000000E+018.7826442124E+01+
*       1.5857032984E+01               0
GRID*               2464               02.0000000000E+019.7173746829E+01+
*       4.5100780496E+00               0
GRID*               2465               02.0000000000E+019.4272393958E+01+
*       6.1831475991E+00               0
GRID*               2466               02.0000000000E+019.7098647129E+01+
*       7.6730695496E+00               0
GRID*               2467               02.0000000000E+019.1393078560E+01+
*       7.7140330966E+00               0
GRID*               2468               02.0000000000E+019.1205198369E+01+
*       1.0963572321E+01               0
GRID*               2469               02.0000000000E+019.7098647129E+01+
*       1.0673069550E+01               0
GRID*               2470               02.0000000000E+019.4096065735E+01+
*       1.2953879791E+01               0
GRID*               2471               02.0000000000E+019.6997418606E+01+
*       1.4280810242E+01               0
GRID*               2472               02.0000000000E+019.1103969845E+01+
*       1.4571313013E+01               0
GRID*               2473               02.0000000000E+019.0717309490E+01+
*       1.7847340455E+01               0
GRID*               2474               02.0000000000E+019.6997418606E+01+
*       1.7280810242E+01               0
GRID*               2475               02.0000000000E+018.9649299153E+01+
*       2.1141664853E+01               0
GRID*               2476               02.0000000000E+018.9225933477E+01+
*       2.4246839018E+01               0
GRID*               2477               02.0000000000E+019.5174570923E+01+
*       1.9158263650E+01               0
GRID*               2478               02.0000000000E+019.8177152318E+01+
*       1.9877453408E+01               0
GRID*               2479               02.0000000000E+019.2926826874E+01+
*       1.9855944882E+01               0
GRID*               2480               02.0000000000E+019.4106560586E+01+
*       2.2452588048E+01               0
GRID*               2481               02.0000000000E+018.8839414445E+01+
*       2.7163682560E+01               0
GRID*               2482               02.0000000000E+019.1472297504E+01+
*       2.6067112822E+01               0
GRID*               2483               02.0000000000E+018.8566527531E+01+
*       3.0152838641E+01               0
GRID*               2484               02.0000000000E+018.8358045050E+01+
*       3.3098082527E+01               0
GRID*               2485               02.0000000000E+018.8176812290E+01+
*       3.6056732927E+01               0
GRID*               2486               02.0000000000E+019.0877295991E+01+
*       3.1929200249E+01               0
GRID*               2487               02.0000000000E+018.8045073159E+01+
*       3.9013750925E+01               0
GRID*               2488               02.0000000000E+019.0537074379E+01+
*       3.7831462134E+01               0
GRID*               2489               02.0000000000E+018.7908378158E+01+
*       4.1956480438E+01               0
GRID*               2490               02.0000000000E+018.7681788201E+01+
*       4.7846015276E+01               0
GRID*               2491               02.0000000000E+018.7586078907E+01+
*       5.0801226568E+01               0
GRID*               2492               02.0000000000E+019.0107845479E+01+
*       4.9656538514E+01               0
GRID*               2493               02.0000000000E+018.7807487921E+01+
*       4.4912903983E+01               0
GRID*               2494               02.0000000000E+019.0304445010E+01+
*       4.3744903677E+01               0
GRID*               2495               02.0000000000E+019.8177152318E+01+
*       2.2877453408E+01               0
GRID*               2496               02.0000000000E+019.6083303909E+01+
*       2.4232599412E+01               0
GRID*               2497               02.0000000000E+019.7906151591E+01+
*       2.5355146004E+01               0
GRID*               2498               02.0000000000E+019.3835559860E+01+
*       2.4930280644E+01               0
GRID*               2499               02.0000000000E+019.3449040827E+01+
*       2.7847124186E+01               0
GRID*               2500               02.0000000000E+019.7906151591E+01+
*       2.8355146004E+01               0
GRID*               2501               02.0000000000E+019.5645939898E+01+
*       2.9601896038E+01               0
GRID*               2502               02.0000000000E+019.7739788307E+01+
*       3.1246750033E+01               0
GRID*               2503               02.0000000000E+019.3282677543E+01+
*       3.0738728215E+01               0
GRID*               2504               02.0000000000E+019.3074195062E+01+
*       3.3683972101E+01               0
GRID*               2505               02.0000000000E+019.7739788307E+01+
*       3.4246750033E+01               0
GRID*               2506               02.0000000000E+019.5383155191E+01+
*       3.5456919207E+01               0
GRID*               2507               02.0000000000E+019.7643366884E+01+
*       3.7210169173E+01               0
GRID*               2508               02.0000000000E+019.2977773639E+01+
*       3.6647391241E+01               0
GRID*               2509               02.0000000000E+019.2846034507E+01+
*       3.9604409239E+01               0
GRID*               2510               02.0000000000E+019.7643366884E+01+
*       4.0210169173E+01               0
GRID*               2511               02.0000000000E+019.5222439362E+01+
*       4.1395835019E+01               0
GRID*               2512               02.0000000000E+019.7579072479E+01+
*       4.3185665846E+01               0
GRID*               2513               02.0000000000E+019.2781740102E+01+
*       4.2579905912E+01               0
GRID*               2514               02.0000000000E+019.2680849865E+01+
*       4.5536329456E+01               0
GRID*               2515               02.0000000000E+019.7471407501E+01+
*       5.5139181956E+01               0
GRID*               2516               02.0000000000E+019.7471407501E+01+
*       5.8139181956E+01               0
GRID*               2517               02.0000000000E+019.7524436214E+01+
*       5.2162241125E+01               0
GRID*               2518               02.0000000000E+019.7524436214E+01+
*       4.9162241125E+01               0
GRID*               2519               02.0000000000E+019.4995843715E+01+
*       5.3301423081E+01               0
GRID*               2520               02.0000000000E+019.2530504307E+01+
*       5.1468116028E+01               0
GRID*               2521               02.0000000000E+019.2477475593E+01+
*       5.4445056859E+01               0
GRID*               2522               02.0000000000E+019.2626213600E+01+
*       4.8512904735E+01               0
GRID*               2523               02.0000000000E+019.5103508693E+01+
*       4.7347906970E+01               0
GRID*               2524               02.0000000000E+019.7579072479E+01+
*       4.6185665846E+01               0
GRID*               2525               02.0000000000E+013.7064812100E+01+
*       1.4368003594E+01               0
GRID*               2526               02.0000000000E+013.7104477133E+01+
*       1.6723902091E+01               0
GRID*               2527               02.0000000000E+013.8922895290E+01+
*       1.5808169413E+01               0
GRID*               2528               02.0000000000E+013.8885468738E+01+
*       -9.690531960E+00               0
GRID*               2529               02.0000000000E+014.0718516761E+01+
*       -1.058545949E+01               0
GRID*               2530               02.0000000000E+013.9500966327E+01+
*       -1.186527152E+01               0
GRID*               2531               02.0000000000E+013.0403649190E+01+
*       2.8734912508E-01               0
GRID*               2532               02.0000000000E+013.0334342040E+01+
*       7.6440271564E-01               0
GRID*               2533               02.0000000000E+013.0824043263E+01+
*       1.5210178441E-02               0
GRID*               2534               02.0000000000E+013.0420394072E+01+
*       -2.721380112E-01               0
GRID*               2535               02.0000000000E+013.1343382908E+01+
*       3.2797215312E-01               0
GRID*               2536               02.0000000000E+013.1360127790E+01+
*       -2.315149832E-01               0
GRID*               2537               02.0000000000E+013.1868508849E+01+
*       -5.735293424E-01               0
GRID*               2538               02.0000000000E+013.2483442200E+01+
*       -2.259793637E-01               0
GRID*               2539               02.0000000000E+013.2472483614E+01+
*       -8.807556976E-01               0
GRID*               2540               02.0000000000E+013.1349169204E+01+
*       -8.862913170E-01               0
GRID*               2541               02.0000000000E+013.1263457051E+01+
*       -1.461568877E+00               0
GRID*               2542               02.0000000000E+013.0755075992E+01+
*       -1.119554518E+00               0
GRID*               2543               02.0000000000E+013.2361386890E+01+
*       -2.355111772E+00               0
GRID*               2544               02.0000000000E+013.2888517180E+01+
*       -2.953286252E+00               0
GRID*               2545               02.0000000000E+013.2167011487E+01+
*       -3.203166396E+00               0
GRID*               2546               02.0000000000E+013.3085154774E+01+
*       -1.319218673E+00               0
GRID*               2547               02.0000000000E+013.2470221423E+01+
*       -1.666768652E+00               0
GRID*               2548               02.0000000000E+013.3837589443E+01+
*       -8.485987562E-01               0
GRID*               2549               02.0000000000E+013.3835327253E+01+
*       -1.634611711E+00               0
GRID*               2550               02.0000000000E+013.1748715730E+01+
*       -1.916648796E+00               0
GRID*               2551               02.0000000000E+013.1154622518E+01+
*       -2.149911997E+00               0
GRID*               2552               02.0000000000E+013.9910219522E+01+
*       -5.113006033E+00               0
GRID*               2553               02.0000000000E+013.8538088743E+01+
*       -4.171300216E+00               0
GRID*               2554               02.0000000000E+014.0161308994E+01+
*       -3.755907433E+00               0
GRID*               2555               02.0000000000E+013.9195009221E+01+
*       -6.969559373E+00               0
GRID*               2556               02.0000000000E+014.0818229473E+01+
*       -6.554166589E+00               0
GRID*               2557               02.0000000000E+013.8482749623E+01+
*       -8.165085516E+00               0
GRID*               2558               02.0000000000E+013.7265199188E+01+
*       -9.444897548E+00               0
GRID*               2559               02.0000000000E+013.7574739672E+01+
*       -6.723924960E+00               0
GRID*               2560               02.0000000000E+013.3723026675E+01+
*       -3.592460410E+00               0
GRID*               2561               02.0000000000E+013.4230537996E+01+
*       -4.402397688E+00               0
GRID*               2562               02.0000000000E+013.3201653097E+01+
*       -4.611278154E+00               0
GRID*               2563               02.0000000000E+013.3917402079E+01+
*       -2.744405786E+00               0
GRID*               2564               02.0000000000E+013.4669836748E+01+
*       -2.273785868E+00               0
GRID*               2565               02.0000000000E+013.5573379923E+01+
*       -1.481400404E+00               0
GRID*               2566               02.0000000000E+013.5655454749E+01+
*       -2.591194479E+00               0
GRID*               2567               02.0000000000E+013.7810351658E+01+
*       -3.316460486E+00               0
GRID*               2568               02.0000000000E+013.7559262186E+01+
*       -4.673559086E+00               0
GRID*               2569               02.0000000000E+013.6695261513E+01+
*       -2.808764185E+00               0
GRID*               2570               02.0000000000E+013.5791718338E+01+
*       -3.601149649E+00               0
GRID*               2571               02.0000000000E+013.7674088069E+01+
*       -2.306505316E+00               0
GRID*               2572               02.0000000000E+013.4760820364E+01+
*       -5.495960973E+00               0
GRID*               2573               02.0000000000E+013.5160814120E+01+
*       -6.472096052E+00               0
GRID*               2574               02.0000000000E+013.4109158174E+01+
*       -6.397350511E+00               0
GRID*               2575               02.0000000000E+013.5282193942E+01+
*       -4.477143229E+00               0
GRID*               2576               02.0000000000E+013.6322000706E+01+
*       -4.694712935E+00               0
GRID*               2577               02.0000000000E+013.5906592393E+01+
*       -8.836521622E+00               0
GRID*               2578               02.0000000000E+013.6309311508E+01+
*       -1.036196807E+01               0
GRID*               2579               02.0000000000E+013.7049737790E+01+
*       -5.549552665E+00               0
GRID*               2580               02.0000000000E+013.6337478191E+01+
*       -6.745078809E+00               0
GRID*               2581               02.0000000000E+013.4729928322E+01+
*       -8.563538865E+00               0
GRID*               2582               02.0000000000E+013.5685816002E+01+
*       -7.646468347E+00               0
GRID*               2583               02.0000000000E+013.3610350866E+01+
*       -1.164612109E-01               0
GRID*               2584               02.0000000000E+013.4360523345E+01+
*       -4.318542481E-01               0
GRID*               2585               02.0000000000E+013.3029328600E+01+
*       1.7438857946E-01               0
GRID*               2586               02.0000000000E+013.2425353835E+01+
*       4.8161493469E-01               0
GRID*               2587               02.0000000000E+013.3552262501E+01+
*       5.9113308750E-01               0
GRID*               2588               02.0000000000E+013.3627252682E+01+
*       1.3297340838E+00               0
GRID*               2589               02.0000000000E+013.4208274948E+01+
*       1.0388842934E+00               0
GRID*               2590               02.0000000000E+013.5113467794E+01+
*       1.1635192089E+00               0
GRID*               2591               02.0000000000E+013.5106640096E+01+
*       2.3251050894E+00               0
GRID*               2592               02.0000000000E+013.5936842761E+01+
*       1.7111390086E+00               0
GRID*               2593               02.0000000000E+013.5265716190E+01+
*       -3.072193327E-01               0
GRID*               2594               02.0000000000E+013.6251334192E+01+
*       -6.246279437E-01               0
GRID*               2595               02.0000000000E+013.5038477613E+01+
*       4.2491821259E-01               0
GRID*               2596               02.0000000000E+013.6790820571E+01+
*       2.4156565634E+00               0
GRID*               2597               02.0000000000E+013.6797648269E+01+
*       1.2540706829E+00               0
GRID*               2598               02.0000000000E+013.6913129543E+01+
*       3.5118626370E+00               0
GRID*               2599               02.0000000000E+013.7773935051E+01+
*       3.0547943113E+00               0
GRID*               2600               02.0000000000E+013.7166861125E+01+
*       2.0470509083E-01               0
GRID*               2601               02.0000000000E+013.8020838935E+01+
*       9.0922264561E-01               0
GRID*               2602               02.0000000000E+013.7474524858E+01+
*       -9.694759810E-01               0
GRID*               2603               02.0000000000E+013.8589615003E+01+
*       -1.477172281E+00               0
GRID*               2604               02.0000000000E+013.9096006721E+01+
*       3.2537730115E+00               0
GRID*               2605               02.0000000000E+013.9094498129E+01+
*       4.8772607561E+00               0
GRID*               2606               02.0000000000E+014.0294260827E+01+
*       3.9800333827E+00               0
GRID*               2607               02.0000000000E+014.0035182787E+01+
*       -1.889290548E+00               0
GRID*               2608               02.0000000000E+014.1407313566E+01+
*       -2.830996364E+00               0
GRID*               2609               02.0000000000E+013.9835619575E+01+
*       -5.522612128E-01               0
GRID*               2610               02.0000000000E+013.8973697748E+01+
*       2.1575669378E+00               0
GRID*               2611               02.0000000000E+013.9342910605E+01+
*       1.1082013458E+00               0
GRID*               2612               02.0000000000E+014.0788478388E+01+
*       6.9608307943E-01               0
GRID*               2613               02.0000000000E+013.9866489559E+01+
*       1.0270665191E+01               0
GRID*               2614               02.0000000000E+014.0805096086E+01+
*       9.3596588390E+00               0
GRID*               2615               02.0000000000E+013.9153399002E+01+
*       9.0531788825E+00               0
GRID*               2616               02.0000000000E+013.7260972447E+01+
*       1.2588979113E+01               0
GRID*               2617               02.0000000000E+013.5442554290E+01+
*       1.3504711792E+01               0
GRID*               2618               02.0000000000E+013.8549011366E+01+
*       1.1708228075E+01               0
GRID*               2619               02.0000000000E+013.6926753556E+01+
*       1.0844936273E+01               0
GRID*               2620               02.0000000000E+013.8931570335E+01+
*       6.2898930830E+00               0
GRID*               2621               02.0000000000E+013.7733316229E+01+
*       5.5636327118E+00               0
GRID*               2622               02.0000000000E+013.8831196982E+01+
*       7.5592187844E+00               0
GRID*               2623               02.0000000000E+013.7892590455E+01+
*       8.4702251368E+00               0
GRID*               2624               02.0000000000E+014.0192378882E+01+
*       6.8728468287E+00               0
GRID*               2625               02.0000000000E+013.6924985150E+01+
*       9.4670178833E+00               0
GRID*               2626               02.0000000000E+013.5636946232E+01+
*       1.0347768922E+01               0
GRID*               2627               02.0000000000E+013.6792041832E+01+
*       4.6113579589E+00               0
GRID*               2628               02.0000000000E+013.5808927352E+01+
*       3.9722202110E+00               0
GRID*               2629               02.0000000000E+013.6602783131E+01+
*       7.9730577852E+00               0
GRID*               2630               02.0000000000E+013.6387942160E+01+
*       6.9831595050E+00               0
GRID*               2631               02.0000000000E+013.5420336855E+01+
*       7.9799522516E+00               0
GRID*               2632               02.0000000000E+013.6629114038E+01+
*       6.0239902858E+00               0
GRID*               2633               02.0000000000E+013.5446667763E+01+
*       6.0308847521E+00               0
GRID*               2634               02.0000000000E+013.1791994527E+01+
*       7.0900530439E-01               0
GRID*               2635               02.0000000000E+013.2337880927E+01+
*       1.1093732476E+00               0
GRID*               2636               02.0000000000E+013.1255910000E+01+
*       9.5573046601E-01               0
GRID*               2637               02.0000000000E+013.4974626499E+01+
*       3.2596992261E+00               0
GRID*               2638               02.0000000000E+013.4853538788E+01+
*       4.3591945480E+00               0
GRID*               2639               02.0000000000E+013.4151251532E+01+
*       2.7120794264E+00               0
GRID*               2640               02.0000000000E+013.3499744822E+01+
*       2.0665632261E+00               0
GRID*               2641               02.0000000000E+013.3367731226E+01+
*       3.0011573627E+00               0
GRID*               2642               02.0000000000E+013.2843732376E+01+
*       1.6188120201E+00               0
GRID*               2643               02.0000000000E+013.2210373068E+01+
*       1.8462023898E+00               0
GRID*               2644               02.0000000000E+013.2910615723E+01+
*       1.1386602892E+01               0
GRID*               2645               02.0000000000E+013.2357865820E+01+
*       1.0056806727E+01               0
GRID*               2646               02.0000000000E+013.3993283979E+01+
*       1.2246169030E+01               0
GRID*               2647               02.0000000000E+013.3797123632E+01+
*       1.4025193511E+01               0
GRID*               2648               02.0000000000E+013.4556046382E+01+
*       1.0866121174E+01               0
GRID*               2649               02.0000000000E+013.4554277976E+01+
*       9.4882027838E+00               0
GRID*               2650               02.0000000000E+013.2853860128E+01+
*       9.3464164338E+00               0
GRID*               2651               02.0000000000E+013.1738347823E+01+
*       9.3966681247E+00               0
GRID*               2652               02.0000000000E+013.4657245664E+01+
*       8.4621385520E+00               0
GRID*               2653               02.0000000000E+013.4442404694E+01+
*       7.4722402718E+00               0
GRID*               2654               02.0000000000E+013.2956827817E+01+
*       8.3203522020E+00               0
GRID*               2655               02.0000000000E+013.3576345814E+01+
*       8.9804908040E+00               0
GRID*               2656               02.0000000000E+013.1397479046E+01+
*       7.7194055817E+00               0
GRID*               2657               02.0000000000E+013.1270581249E+01+
*       6.8882517721E+00               0
GRID*               2658               02.0000000000E+013.1494616561E+01+
*       8.4707415910E+00               0
GRID*               2659               02.0000000000E+013.2137204616E+01+
*       7.9349418225E+00               0
GRID*               2660               02.0000000000E+013.2859690302E+01+
*       7.5690161927E+00               0
GRID*               2661               02.0000000000E+013.4340375613E+01+
*       6.3977483362E+00               0
GRID*               2662               02.0000000000E+013.4581547491E+01+
*       5.4385791170E+00               0
GRID*               2663               02.0000000000E+013.3577284422E+01+
*       6.8799346367E+00               0
GRID*               2664               02.0000000000E+013.2757661221E+01+
*       6.4945242572E+00               0
GRID*               2665               02.0000000000E+013.3747246638E+01+
*       4.7260581321E+00               0
GRID*               2666               02.0000000000E+013.0103636854E+01+
*       3.2125629734E+00               0
GRID*               2667               02.0000000000E+013.0124317116E+01+
*       3.6452127927E+00               0
GRID*               2668               02.0000000000E+013.1139624097E+01+
*       1.4764708539E+00               0
GRID*               2669               02.0000000000E+013.0937314126E+01+
*       2.0705848343E+00               0
GRID*               2670               02.0000000000E+013.1502211648E+01+
*       1.9308775977E+00               0
GRID*               2671               02.0000000000E+013.0691012478E+01+
*       1.0954377026E+00               0
GRID*               2672               02.0000000000E+013.0218056137E+01+
*       1.2851431035E+00               0
GRID*               2673               02.0000000000E+012.9900679377E+01+
*       2.1639709008E+00               0
GRID*               2674               02.0000000000E+012.9990419314E+01+
*       2.7355495740E+00               0
GRID*               2675               02.0000000000E+013.0030072085E+01+
*       1.7292990280E+00               0
GRID*               2676               02.0000000000E+013.0445333867E+01+
*       2.0508499632E+00               0
GRID*               2677               02.0000000000E+013.2008063097E+01+
*       2.4403163703E+00               0
GRID*               2678               02.0000000000E+013.0807921418E+01+
*       2.5052567071E+00               0
GRID*               2679               02.0000000000E+013.0429158699E+01+
*       2.9625352353E+00               0
GRID*               2680               02.0000000000E+013.0921138958E+01+
*       2.9822701064E+00               0
GRID*               2681               02.0000000000E+013.2359170823E+01+
*       3.1985964949E+00               0
GRID*               2682               02.0000000000E+013.3010677532E+01+
*       3.8441126952E+00               0
GRID*               2683               02.0000000000E+013.1651009403E+01+
*       3.2832717028E+00               0
GRID*               2684               02.0000000000E+013.2561575292E+01+
*       5.7584353512E+00               0
GRID*               2685               02.0000000000E+013.1843981173E+01+
*       6.4475169072E+00               0
GRID*               2686               02.0000000000E+013.2738686235E+01+
*       4.9234972642E+00               0
GRID*               2687               02.0000000000E+013.1825006187E+01+
*       4.8764899143E+00               0
GRID*               2688               02.0000000000E+013.1074495320E+01+
*       6.1521628661E+00               0
GRID*               2689               02.0000000000E+013.0999756003E+01+
*       5.2953438943E+00               0
GRID*               2690               02.0000000000E+013.1272246684E+01+
*       3.7405502310E+00               0
GRID*               2691               02.0000000000E+013.1176866946E+01+
*       4.4604058074E+00               0
GRID*               2692               02.0000000000E+013.0446996501E+01+
*       4.1594042110E+00               0
GRID*               2693               02.0000000000E+016.5635230198E+01+
*       -1.502533964E+01               0
GRID*               2694               02.0000000000E+016.5902158859E+01+
*       -1.800116376E+01               0
GRID*               2695               02.0000000000E+016.5339618574E+01+
*       -1.202010941E+01               0
GRID*               2696               02.0000000000E+016.5098880631E+01+
*       -8.998876849E+00               0
GRID*               2697               02.0000000000E+016.2917135469E+01+
*       -1.370442555E+01               0
GRID*               2698               02.0000000000E+016.0480161988E+01+
*       -1.544526480E+01               0
GRID*               2699               02.0000000000E+016.0184550364E+01+
*       -1.244003457E+01               0
GRID*               2700               02.0000000000E+016.4824377851E+01+
*       -5.946069989E+00               0
GRID*               2701               02.0000000000E+016.4609048767E+01+
*       -2.891073038E+00               0
GRID*               2702               02.0000000000E+015.7384013430E+01+
*       -1.111309088E+01               0
GRID*               2703               02.0000000000E+015.9820986911E+01+
*       -9.372251632E+00               0
GRID*               2704               02.0000000000E+015.4851127638E+01+
*       -1.293473207E+01               0
GRID*               2705               02.0000000000E+015.4487564186E+01+
*       -9.866949135E+00               0
GRID*               2706               02.0000000000E+016.2347021065E+01+
*       -7.646388460E+00               0
GRID*               2707               02.0000000000E+015.9546484131E+01+
*       -6.319444772E+00               0
GRID*               2708               02.0000000000E+015.2564513787E+01+
*       -1.474060372E+01               0
GRID*               2709               02.0000000000E+014.9982250900E+01+
*       -1.697593051E+01               0
GRID*               2710               02.0000000000E+014.9372415508E+01+
*       -1.392391711E+01               0
GRID*               2711               02.0000000000E+015.5460963031E+01+
*       -1.598674547E+01               0
GRID*               2712               02.0000000000E+015.8119494666E+01+
*       -1.713506933E+01               0
GRID*               2713               02.0000000000E+015.5832880814E+01+
*       -1.894094098E+01               0
GRID*               2714               02.0000000000E+016.6210683809E+01+
*       -2.095811053E+01               0
GRID*               2715               02.0000000000E+016.6516141146E+01+
*       -2.388466336E+01               0
GRID*               2716               02.0000000000E+016.0852079771E+01+
*       -1.839946031E+01               0
GRID*               2717               02.0000000000E+016.3521272044E+01+
*       -1.966660255E+01               0
GRID*               2718               02.0000000000E+016.1160604721E+01+
*       -2.135640708E+01               0
GRID*               2719               02.0000000000E+015.1633508533E+01+
*       -8.465071422E+00               0
GRID*               2720               02.0000000000E+015.4166394325E+01+
*       -6.643430232E+00               0
GRID*               2721               02.0000000000E+014.8428847989E+01+
*       -6.965622770E+00               0
GRID*               2722               02.0000000000E+014.5655352012E+01+
*       -5.362376423E+00               0
GRID*               2723               02.0000000000E+014.8538842695E+01+
*       -3.638306173E+00               0
GRID*               2724               02.0000000000E+014.8750017850E+01+
*       -1.018914167E+01               0
GRID*               2725               02.0000000000E+014.6167754963E+01+
*       -1.242446846E+01               0
GRID*               2726               02.0000000000E+014.3649393246E+01+
*       -3.366336538E+00               0
GRID*               2727               02.0000000000E+014.3523267039E+01+
*       -1.499719653E+00               0
GRID*               2728               02.0000000000E+014.3439685827E+01+
*       -1.072494603E+01               0
GRID*               2729               02.0000000000E+014.4062083486E+01+
*       -1.445972148E+01               0
GRID*               2730               02.0000000000E+014.2824188239E+01+
*       -8.550206474E+00               0
GRID*               2731               02.0000000000E+014.3539398539E+01+
*       -6.693653135E+00               0
GRID*               2732               02.0000000000E+014.1678190937E+01+
*       3.3637091319E+00               0
GRID*               2733               02.0000000000E+014.1676682345E+01+
*       4.9871968765E+00               0
GRID*               2734               02.0000000000E+015.6760982416E+01+
*       -4.961925311E+00               0
GRID*               2735               02.0000000000E+015.9287016569E+01+
*       -3.236062139E+00               0
GRID*               2736               02.0000000000E+014.3172988117E+01+
*       2.8920914383E+00               0
GRID*               2737               02.0000000000E+014.4721349050E+01+
*       3.6631311973E+00               0
GRID*               2738               02.0000000000E+014.4833724712E+01+
*       2.1843500098E+00               0
GRID*               2739               02.0000000000E+014.1790566599E+01+
*       1.8849279444E+00               0
GRID*               2740               02.0000000000E+014.2283275569E+01+
*       2.2446538579E-01               0
GRID*               2741               02.0000000000E+015.3906926763E+01+
*       -3.560047599E+00               0
GRID*               2742               02.0000000000E+015.1155515086E+01+
*       -2.217344681E+00               0
GRID*               2743               02.0000000000E+015.3750103177E+01+
*       -5.358397601E-01               0
GRID*               2744               02.0000000000E+014.8382019109E+01+
*       -6.140983342E-01               0
GRID*               2745               02.0000000000E+014.4525355249E+01+
*       -3.108747879E-01               0
GRID*               2746               02.0000000000E+014.6073716182E+01+
*       4.6016497108E-01               0
GRID*               2747               02.0000000000E+014.8690388573E+01+
*       1.8811264635E+00               0
GRID*               2748               02.0000000000E+016.3279807434E+01+
*       2.1818762509E+01               0
GRID*               2749               02.0000000000E+016.3377329697E+01+
*       1.8730486667E+01               0
GRID*               2750               02.0000000000E+016.3243059528E+01+
*       2.4973571360E+01               0
GRID*               2751               02.0000000000E+016.3223423167E+01+
*       2.7996716760E+01               0
GRID*               2752               02.0000000000E+016.0590732490E+01+
*       2.3271618269E+01               0
GRID*               2753               02.0000000000E+015.7796420460E+01+
*       2.1527136647E+01               0
GRID*               2754               02.0000000000E+015.7759672554E+01+
*       2.4681945498E+01               0
GRID*               2755               02.0000000000E+016.3430776971E+01+
*       3.0989861683E+01               0
GRID*               2756               02.0000000000E+016.3433736689E+01+
*       3.3867756573E+01               0
GRID*               2757               02.0000000000E+015.4864896982E+01+
*       2.6481469840E+01               0
GRID*               2758               02.0000000000E+015.7659209013E+01+
*       2.8225951461E+01               0
GRID*               2759               02.0000000000E+015.1992772963E+01+
*       2.4216528528E+01               0
GRID*               2760               02.0000000000E+015.1892309422E+01+
*       2.7760534491E+01               0
GRID*               2761               02.0000000000E+016.0761338388E+01+
*       2.9419572044E+01               0
GRID*               2762               02.0000000000E+015.7866562817E+01+
*       3.1219096385E+01               0
GRID*               2763               02.0000000000E+014.9277729468E+01+
*       2.2308051725E+01               0
GRID*               2764               02.0000000000E+014.6673410082E+01+
*       2.0337595802E+01               0
GRID*               2765               02.0000000000E+014.6415866017E+01+
*       2.3525137257E+01               0
GRID*               2766               02.0000000000E+016.3503687043E+01+
*       1.5615451678E+01               0
GRID*               2767               02.0000000000E+016.3649841317E+01+
*       1.2517334340E+01               0
GRID*               2768               02.0000000000E+016.0753837743E+01+
*       1.7001774429E+01               0
GRID*               2769               02.0000000000E+015.8078480143E+01+
*       1.5233619612E+01               0
GRID*               2770               02.0000000000E+015.7952122797E+01+
*       1.8348654602E+01               0
GRID*               2771               02.0000000000E+015.2250317028E+01+
*       2.1028987074E+01               0
GRID*               2772               02.0000000000E+015.5121062860E+01+
*       1.9758981831E+01               0
GRID*               2773               02.0000000000E+015.2406019365E+01+
*       1.7850505028E+01               0
GRID*               2774               02.0000000000E+016.3817533494E+01+
*       9.4203440443E+00               0
GRID*               2775               02.0000000000E+016.1047887266E+01+
*       1.0789749144E+01               0
GRID*               2776               02.0000000000E+016.3989328918E+01+
*       6.3282720422E+00               0
GRID*               2777               02.0000000000E+016.4382359487E+01+
*       1.7519819564E-01               0
GRID*               2778               02.0000000000E+016.1845829004E+01+
*       -1.527310367E+00               0
GRID*               2779               02.0000000000E+016.4191109058E+01+
*       3.2513730510E+00               0
GRID*               2780               02.0000000000E+016.1417359583E+01+
*       4.6158598574E+00               0
GRID*               2781               02.0000000000E+015.9060327289E+01+
*       -1.697909061E-01               0
GRID*               2782               02.0000000000E+015.6250254518E+01+
*       1.1703128625E+00               0
GRID*               2783               02.0000000000E+015.8809066953E+01+
*       2.8790646348E+00               0
GRID*               2784               02.0000000000E+015.8230445550E+01+
*       1.2128193448E+01               0
GRID*               2785               02.0000000000E+015.5428730604E+01+
*       1.3475073621E+01               0
GRID*               2786               02.0000000000E+015.8398137727E+01+
*       9.0312031526E+00               0
GRID*               2787               02.0000000000E+015.8607286812E+01+
*       5.9559636260E+00               0
GRID*               2788               02.0000000000E+015.5789845096E+01+
*       7.2944079300E+00               0
GRID*               2789               02.0000000000E+014.3926025552E+01+
*       1.8328182884E+01               0
GRID*               2790               02.0000000000E+014.1501532397E+01+
*       1.6632876172E+01               0
GRID*               2791               02.0000000000E+014.1387053478E+01+
*       1.9859374622E+01               0
GRID*               2792               02.0000000000E+014.6787889002E+01+
*       1.7111097352E+01               0
GRID*               2793               02.0000000000E+015.2648945815E+01+
*       1.4779905843E+01               0
GRID*               2794               02.0000000000E+015.2800911221E+01+
*       1.1674479679E+01               0
GRID*               2795               02.0000000000E+014.9778199982E+01+
*       1.6049911086E+01               0
GRID*               2796               02.0000000000E+014.7030815452E+01+
*       1.4040498167E+01               0
GRID*               2797               02.0000000000E+015.2795691821E+01+
*       8.5760593115E+00               0
GRID*               2798               02.0000000000E+015.0015907031E+01+
*       9.8808915335E+00               0
GRID*               2799               02.0000000000E+015.3004840906E+01+
*       5.5008197849E+00               0
GRID*               2800               02.0000000000E+015.3498842841E+01+
*       2.5130157808E+00               0
GRID*               2801               02.0000000000E+015.0504689565E+01+
*       3.7946671623E+00               0
GRID*               2802               02.0000000000E+014.1368108830E+01+
*       7.7945219556E+00               0
GRID*               2803               02.0000000000E+014.1468482183E+01+
*       6.5251962542E+00               0
GRID*               2804               02.0000000000E+014.2081199388E+01+
*       9.0120082645E+00               0
GRID*               2805               02.0000000000E+014.3543640521E+01+
*       1.0212466514E+01               0
GRID*               2806               02.0000000000E+014.4106653264E+01+
*       8.6473296309E+00               0
GRID*               2807               02.0000000000E+014.0200708450E+01+
*       1.2014708032E+01               0
GRID*               2808               02.0000000000E+014.1461867364E+01+
*       1.4276977675E+01               0
GRID*               2809               02.0000000000E+014.4804799435E+01+
*       1.2474736157E+01               0
GRID*               2810               02.0000000000E+014.7795110415E+01+
*       1.1413549891E+01               0
GRID*               2811               02.0000000000E+014.2779345558E+01+
*       1.2839414791E+01               0
GRID*               2812               02.0000000000E+014.4017583480E+01+
*       6.8511781581E+00               0
GRID*               2813               02.0000000000E+014.5480024613E+01+
*       8.0516364079E+00               0
GRID*               2814               02.0000000000E+014.2852412293E+01+
*       5.9088720034E+00               0
GRID*               2815               02.0000000000E+014.4225783642E+01+
*       5.3131787804E+00               0
GRID*               2816               02.0000000000E+014.5886520237E+01+
*       4.6054373519E+00               0
GRID*               2817               02.0000000000E+014.8196386638E+01+
*       4.8689304675E+00               0
GRID*               2818               02.0000000000E+014.7789891014E+01+
*       8.3151295236E+00               0
GRID*               2819               02.0000000000E+014.7700821229E+01+
*       6.5189780507E+00               0
GRID*               2820               02.0000000000E+013.4060653214E+01+
*       -9.190483558E+00               0
GRID*               2821               02.0000000000E+013.3839876823E+01+
*       -8.000430283E+00               0
GRID*               2822               02.0000000000E+013.0344292924E+01+
*       -7.730777382E-01               0
GRID*               2823               02.0000000000E+013.0258580770E+01+
*       -1.348355299E+00               0
GRID*               2824               02.0000000000E+013.0053445614E+01+
*       -1.812195262E+00               0
GRID*               2825               02.0000000000E+013.1421040121E+01+
*       -5.967876593E+00               0
GRID*               2826               02.0000000000E+013.1175711641E+01+
*       -5.219529438E+00               0
GRID*               2827               02.0000000000E+013.1170584912E+01+
*       -7.492538237E+00               0
GRID*               2828               02.0000000000E+013.1764664805E+01+
*       -6.790242102E+00               0
GRID*               2829               02.0000000000E+013.2007941969E+01+
*       -7.657710788E+00               0
GRID*               2830               02.0000000000E+013.2258397178E+01+
*       -6.133049144E+00               0
GRID*               2831               02.0000000000E+013.3155593140E+01+
*       -6.188315042E+00               0
GRID*               2832               02.0000000000E+013.2811968456E+01+
*       -5.365949533E+00               0
GRID*               2833               02.0000000000E+013.3555586896E+01+
*       -7.164450121E+00               0
GRID*               2834               02.0000000000E+013.2886311788E+01+
*       -7.791394815E+00               0
GRID*               2835               02.0000000000E+013.0536448444E+01+
*       -2.278773107E+00               0
GRID*               2836               02.0000000000E+013.1021707123E+01+
*       -2.733853026E+00               0
GRID*               2837               02.0000000000E+012.9920530219E+01+
*       -2.396136290E+00               0
GRID*               2838               02.0000000000E+012.9961890451E+01+
*       -2.965169411E+00               0
GRID*               2839               02.0000000000E+013.0799894884E+01+
*       -4.530492939E+00               0
GRID*               2840               02.0000000000E+013.1538955738E+01+
*       -4.621647136E+00               0
GRID*               2841               02.0000000000E+013.0557496959E+01+
*       -3.931284163E+00               0
GRID*               2842               02.0000000000E+013.0177693994E+01+
*       -3.396335912E+00               0
GRID*               2843               02.0000000000E+013.0783336015E+01+
*       -3.397662386E+00               0
GRID*               2844               02.0000000000E+013.2304457136E+01+
*       -4.556012255E+00               0
GRID*               2845               02.0000000000E+013.1928640379E+01+
*       -3.866975757E+00               0
GRID*               2846               02.0000000000E+013.1401510089E+01+
*       -3.268801277E+00               0
GRID*               2847               02.0000000000E+01-2.694843818E+01+
*       5.0742239544E+00               0
GRID*               2848               02.0000000000E+01-2.649906580E+01+
*       5.3503398851E+00               0
GRID*               2849               02.0000000000E+01-2.750979866E+01+
*       5.3483099056E+00               0
GRID*               2850               02.0000000000E+01-2.741472351E+01+
*       4.7353872779E+00               0
GRID*               2851               02.0000000000E+01-3.443853002E+01+
*       8.2850068855E+00               0
GRID*               2852               02.0000000000E+01-3.559563104E+01+
*       7.5190966301E+00               0
GRID*               2853               02.0000000000E+01-3.585458721E+01+
*       8.8707141426E+00               0
GRID*               2854               02.0000000000E+01-3.352080354E+01+
*       9.0219769917E+00               0
GRID*               2855               02.0000000000E+01-3.326184736E+01+
*       7.6703594792E+00               0
GRID*               2856               02.0000000000E+01-2.813403372E+01+
*       5.6348669812E+00               0
GRID*               2857               02.0000000000E+01-2.766774839E+01+
*       5.9737036577E+00               0
GRID*               2858               02.0000000000E+01-2.874527943E+01+
*       5.8660682841E+00               0
GRID*               2859               02.0000000000E+01-2.858732971E+01+
*       5.2406745320E+00               0
GRID*               2860               02.0000000000E+01-3.214873562E+01+
*       7.4802381885E+00               0
GRID*               2861               02.0000000000E+01-3.306646210E+01+
*       6.7432680823E+00               0
GRID*               2862               02.0000000000E+01-3.146700956E+01+
*       7.9116829018E+00               0
GRID*               2863               02.0000000000E+01-3.127162429E+01+
*       6.9845915050E+00               0
GRID*               2864               02.0000000000E+01-2.934035725E+01+
*       6.0223326350E+00               0
GRID*               2865               02.0000000000E+01-2.888706127E+01+
*       6.4165250842E+00               0
GRID*               2866               02.0000000000E+01-2.983667768E+01+
*       5.7220187121E+00               0
GRID*               2867               02.0000000000E+01-2.997845951E+01+
*       6.2724755122E+00               0
GRID*               2868               02.0000000000E+01-3.053233908E+01+
*       6.6940989038E+00               0
GRID*               2869               02.0000000000E+01-3.121406514E+01+
*       6.2626541905E+00               0
GRID*               2870               02.0000000000E+01-3.003601866E+01+
*       6.9944128267E+00               0
GRID*               2871               02.0000000000E+01-9.742734285E+01+
*       4.3343830055E+01               0
GRID*               2872               02.0000000000E+01-9.484353988E+01+
*       4.1749746263E+01               0
GRID*               2873               02.0000000000E+01-9.741619703E+01+
*       4.0405916209E+01               0
GRID*               2874               02.0000000000E+01-9.742734285E+01+
*       4.6343830055E+01               0
GRID*               2875               02.0000000000E+01-9.225974438E+01+
*       4.0134110554E+01               0
GRID*               2876               02.0000000000E+01-9.227089021E+01+
*       4.3072024400E+01               0
GRID*               2877               02.0000000000E+01-8.965978102E+01+
*       3.8593320968E+01               0
GRID*               2878               02.0000000000E+01-9.223243069E+01+
*       3.7271042831E+01               0
GRID*               2879               02.0000000000E+01-8.707146031E+01+
*       3.7015581501E+01               0
GRID*               2880               02.0000000000E+01-8.709877401E+01+
*       3.9878649224E+01               0
GRID*               2881               02.0000000000E+01-8.445598684E+01+
*       3.5518368354E+01               0
GRID*               2882               02.0000000000E+01-8.701699385E+01+
*       3.4233040098E+01               0
GRID*               2883               02.0000000000E+01-8.187218087E+01+
*       3.3976327066E+01               0
GRID*               2884               02.0000000000E+01-8.192664733E+01+
*       3.6758868469E+01               0
GRID*               2885               02.0000000000E+01-7.924600688E+01+
*       3.2510913022E+01               0
GRID*               2886               02.0000000000E+01-8.177534639E+01+
*       3.1270412907E+01               0
GRID*               2887               02.0000000000E+01-7.677305636E+01+
*       3.3711581560E+01               0
GRID*               2888               02.0000000000E+01-7.667622188E+01+
*       3.1005667401E+01               0
GRID*               2889               02.0000000000E+01-7.404944717E+01+
*       2.9570561446E+01               0
GRID*               2890               02.0000000000E+01-7.652239768E+01+
*       2.8369892909E+01               0
GRID*               2891               02.0000000000E+01-7.165772876E+01+
*       3.0743214084E+01               0
GRID*               2892               02.0000000000E+01-7.150390456E+01+
*       2.8107439592E+01               0
GRID*               2893               02.0000000000E+01-3.731860907E+01+
*       9.6344768690E+00               0
GRID*               2894               02.0000000000E+01-3.616150805E+01+
*       1.0400387124E+01               0
GRID*               2895               02.0000000000E+01-3.864042797E+01+
*       8.6755886360E+00               0
GRID*               2896               02.0000000000E+01-3.894734881E+01+
*       1.0205261618E+01               0
GRID*               2897               02.0000000000E+01-6.889794231E+01+
*       2.6714118482E+01               0
GRID*               2898               02.0000000000E+01-7.128966072E+01+
*       2.5541465845E+01               0
GRID*               2899               02.0000000000E+01-6.660391494E+01+
*       2.7861409707E+01               0
GRID*               2900               02.0000000000E+01-6.638967109E+01+
*       2.5295435959E+01               0
GRID*               2901               02.0000000000E+01-6.384018953E+01+
*       2.3953828438E+01               0
GRID*               2902               02.0000000000E+01-6.613421690E+01+
*       2.2806537213E+01               0
GRID*               2903               02.0000000000E+01-6.164752583E+01+
*       2.5059738571E+01               0
GRID*               2904               02.0000000000E+01-6.139207163E+01+
*       2.2570839824E+01               0
GRID*               2905               02.0000000000E+01-5.895079814E+01+
*       2.1285658064E+01               0
GRID*               2906               02.0000000000E+01-6.114346184E+01+
*       2.0179747931E+01               0
GRID*               2907               02.0000000000E+01-5.684779129E+01+
*       2.2310108608E+01               0
GRID*               2908               02.0000000000E+01-5.659918150E+01+
*       1.9919016715E+01               0
GRID*               2909               02.0000000000E+01-5.433683405E+01+
*       1.8681937831E+01               0
GRID*               2910               02.0000000000E+01-5.643984090E+01+
*       1.7657487287E+01               0
GRID*               2911               02.0000000000E+01-5.225169610E+01+
*       1.9548905287E+01               0
GRID*               2912               02.0000000000E+01-5.209235550E+01+
*       1.7287375859E+01               0
GRID*               2913               02.0000000000E+01-4.997189291E+01+
*       1.5861951770E+01               0
GRID*               2914               02.0000000000E+01-5.205703087E+01+
*       1.4994984314E+01               0
GRID*               2915               02.0000000000E+01-4.779268060E+01+
*       1.6736548967E+01               0
GRID*               2916               02.0000000000E+01-4.775735596E+01+
*       1.4444157422E+01               0
GRID*               2917               02.0000000000E+01-4.530257672E+01+
*       1.2791804723E+01               0
GRID*               2918               02.0000000000E+01-4.748178903E+01+
*       1.1917207526E+01               0
GRID*               2919               02.0000000000E+01-4.342750594E+01+
*       1.4131616370E+01               0
GRID*               2920               02.0000000000E+01-4.315193900E+01+
*       1.1604666475E+01               0
GRID*               2921               02.0000000000E+01-4.077301797E+01+
*       1.1095425753E+01               0
GRID*               2922               02.0000000000E+01-4.264808874E+01+
*       9.7556141063E+00               0
GRID*               2923               02.0000000000E+01-3.945119907E+01+
*       1.2054313986E+01               0
GRID*               2924               02.0000000000E+01-2.596746373E+01+
*       5.6707887297E+00               0
GRID*               2925               02.0000000000E+01-2.545583526E+01+
*       5.9466464460E+00               0
GRID*               2926               02.0000000000E+01-2.651191127E+01+
*       6.0075954267E+00               0
GRID*               2927               02.0000000000E+01-3.620838193E+01+
*       1.1858607183E+01               0
GRID*               2928               02.0000000000E+01-3.474436007E+01+
*       1.1094844457E+01               0
GRID*               2929               02.0000000000E+01-3.774175358E+01+
*       1.2912770573E+01               0
GRID*               2930               02.0000000000E+01-3.632460560E+01+
*       1.3607227905E+01               0
GRID*               2931               02.0000000000E+01-2.713253141E+01+
*       6.3852456125E+00               0
GRID*               2932               02.0000000000E+01-2.660092935E+01+
*       6.7056944572E+00               0
GRID*               2933               02.0000000000E+01-2.775676647E+01+
*       6.6718026882E+00               0
GRID*               2934               02.0000000000E+01-3.351341820E+01+
*       1.0185927363E+01               0
GRID*               2935               02.0000000000E+01-3.233673555E+01+
*       9.5712799567E+00               0
GRID*               2936               02.0000000000E+01-3.356029208E+01+
*       1.1644147422E+01               0
GRID*               2937               02.0000000000E+01-3.139801506E+01+
*       8.8013054854E+00               0
GRID*               2938               02.0000000000E+01-3.052090374E+01+
*       8.3056588019E+00               0
GRID*               2939               02.0000000000E+01-3.139062973E+01+
*       9.9652558568E+00               0
GRID*               2940               02.0000000000E+01-2.857484259E+01+
*       7.0448829435E+00               0
GRID*               2941               02.0000000000E+01-2.803962561E+01+
*       7.4564248984E+00               0
GRID*               2942               02.0000000000E+01-2.916992040E+01+
*       7.2011472944E+00               0
GRID*               2943               02.0000000000E+01-2.972379998E+01+
*       7.6227706860E+00               0
GRID*               2944               02.0000000000E+01-2.965480548E+01+
*       8.5123932696E+00               0
GRID*               2945               02.0000000000E+01-9.742434171E+01+
*       4.9296263459E+01               0
GRID*               2946               02.0000000000E+01-9.742434171E+01+
*       5.2296263459E+01               0
GRID*               2947               02.0000000000E+01-8.195165133E+01+
*       3.9486465920E+01               0
GRID*               2948               02.0000000000E+01-8.451367411E+01+
*       4.1110518180E+01               0
GRID*               2949               02.0000000000E+01-8.195487215E+01+
*       4.2296074343E+01               0
GRID*               2950               02.0000000000E+01-7.936784536E+01+
*       3.7944424632E+01               0
GRID*               2951               02.0000000000E+01-8.710199482E+01+
*       4.2688257647E+01               0
GRID*               2952               02.0000000000E+01-8.968341797E+01+
*       4.4343922030E+01               0
GRID*               2953               02.0000000000E+01-8.709831807E+01+
*       4.5575790987E+01               0
GRID*               2954               02.0000000000E+01-9.485168457E+01+
*       4.7640093513E+01               0
GRID*               2955               02.0000000000E+01-9.226721346E+01+
*       4.5959557739E+01               0
GRID*               2956               02.0000000000E+01-9.226421232E+01+
*       4.8911991144E+01               0
GRID*               2957               02.0000000000E+01-3.956742274E+01+
*       1.3802934709E+01               0
GRID*               2958               02.0000000000E+01-4.140884924E+01+
*       1.5036256827E+01               0
GRID*               2959               02.0000000000E+01-3.969940375E+01+
*       1.5894713414E+01               0
GRID*               2960               02.0000000000E+01-7.683772938E+01+
*       3.6361335542E+01               0
GRID*               2961               02.0000000000E+01-7.426794438E+01+
*       3.4856089920E+01               0
GRID*               2962               02.0000000000E+01-7.686273337E+01+
*       3.9088932992E+01               0
GRID*               2963               02.0000000000E+01-7.177658131E+01+
*       3.3324688288E+01               0
GRID*               2964               02.0000000000E+01-6.923103870E+01+
*       3.1861566434E+01               0
GRID*               2965               02.0000000000E+01-7.184125432E+01+
*       3.5974442270E+01               0
GRID*               2966               02.0000000000E+01-6.677522836E+01+
*       3.0388456518E+01               0
GRID*               2967               02.0000000000E+01-6.426695715E+01+
*       2.8969773995E+01               0
GRID*               2968               02.0000000000E+01-6.689408091E+01+
*       3.2969930722E+01               0
GRID*               2969               02.0000000000E+01-6.183524229E+01+
*       2.7539756513E+01               0
GRID*               2970               02.0000000000E+01-5.938712440E+01+
*       2.6156767900E+01               0
GRID*               2971               02.0000000000E+01-6.200655572E+01+
*       3.0066803325E+01               0
GRID*               2972               02.0000000000E+01-4.355948696E+01+
*       1.6223395075E+01               0
GRID*               2973               02.0000000000E+01-4.563754791E+01+
*       1.7624288597E+01               0
GRID*               2974               02.0000000000E+01-4.361889121E+01+
*       1.8528929054E+01               0
GRID*               2975               02.0000000000E+01-5.698952818E+01+
*       2.4729210997E+01               0
GRID*               2976               02.0000000000E+01-5.463791154E+01+
*       2.3362569648E+01               0
GRID*               2977               02.0000000000E+01-5.717724465E+01+
*       2.7209228940E+01               0
GRID*               2978               02.0000000000E+01-4.785208486E+01+
*       1.9042082945E+01               0
GRID*               2979               02.0000000000E+01-5.007060357E+01+
*       2.0512167577E+01               0
GRID*               2980               02.0000000000E+01-4.791547088E+01+
*       2.1399907207E+01               0
GRID*               2981               02.0000000000E+01-5.231508212E+01+
*       2.1906729549E+01               0
GRID*               2982               02.0000000000E+01-5.245681901E+01+
*       2.4325831937E+01               0
GRID*               2983               02.0000000000E+01-8.447040745E+01+
*       4.6781010103E+01               0
GRID*               2984               02.0000000000E+01-8.185811914E+01+
*       4.7930845344E+01               0
GRID*               2985               02.0000000000E+01-8.190460663E+01+
*       4.5069961844E+01               0
GRID*               2986               02.0000000000E+01-8.705183059E+01+
*       4.8436674486E+01               0
GRID*               2987               02.0000000000E+01-8.965234860E+01+
*       5.0163383448E+01               0
GRID*               2988               02.0000000000E+01-8.702443797E+01+
*       5.1368602565E+01               0
GRID*               2989               02.0000000000E+01-9.223681970E+01+
*       5.1843919222E+01               0
GRID*               2990               02.0000000000E+01-9.741558400E+01+
*       5.5273775621E+01               0
GRID*               2991               02.0000000000E+01-9.741558400E+01+
*       5.8273775621E+01               0
GRID*               2992               02.0000000000E+01-9.483992571E+01+
*       5.3570039080E+01               0
GRID*               2993               02.0000000000E+01-9.222806199E+01+
*       5.4821431385E+01               0
GRID*               2994               02.0000000000E+01-2.486624829E+01+
*       6.2312648671E+00               0
GRID*               2995               02.0000000000E+01-2.427298121E+01+
*       6.5054101145E+00               0
GRID*               2996               02.0000000000E+01-2.539072223E+01+
*       6.6126626925E+00               0
GRID*               2997               02.0000000000E+01-3.771206717E+01+
*       1.6615326114E+01               0
GRID*               2998               02.0000000000E+01-3.955349367E+01+
*       1.7848648232E+01               0
GRID*               2999               02.0000000000E+01-3.600225791E+01+
*       1.7206601553E+01               0
GRID*               3000               02.0000000000E+01-3.614816799E+01+
*       1.5252666735E+01               0
GRID*               3001               02.0000000000E+01-2.596360148E+01+
*       7.0389220277E+00               0
GRID*               3002               02.0000000000E+01-2.537401450E+01+
*       7.3235404488E+00               0
GRID*               3003               02.0000000000E+01-2.658422162E+01+
*       7.4165722135E+00               0
GRID*               3004               02.0000000000E+01-3.461479634E+01+
*       1.4198503344E+01               0
GRID*               3005               02.0000000000E+01-3.315616286E+01+
*       1.4650689707E+01               0
GRID*               3006               02.0000000000E+01-3.333260048E+01+
*       1.3005250878E+01               0
GRID*               3007               02.0000000000E+01-3.210165861E+01+
*       1.2096333784E+01               0
GRID*               3008               02.0000000000E+01-3.088273277E+01+
*       1.2373895927E+01               0
GRID*               3009               02.0000000000E+01-3.111042437E+01+
*       1.1012792471E+01               0
GRID*               3010               02.0000000000E+01-2.725474199E+01+
*       7.8873178807E+00               0
GRID*               3011               02.0000000000E+01-2.661741412E+01+
*       8.2205454512E+00               0
GRID*               3012               02.0000000000E+01-2.807281811E+01+
*       8.2603981361E+00               0
GRID*               3013               02.0000000000E+01-3.017170389E+01+
*       1.0242818000E+01               0
GRID*               3014               02.0000000000E+01-2.931300769E+01+
*       1.0426784918E+01               0
GRID*               3015               02.0000000000E+01-2.959321304E+01+
*       9.3792483034E+00               0
GRID*               3016               02.0000000000E+01-2.879610928E+01+
*       8.6963601875E+00               0
GRID*               3017               02.0000000000E+01-2.801122567E+01+
*       9.1272531699E+00               0
GRID*               3018               02.0000000000E+01-7.934258384E+01+
*       4.3445909584E+01               0
GRID*               3019               02.0000000000E+01-7.678151760E+01+
*       4.4547094826E+01               0
GRID*               3020               02.0000000000E+01-7.683178312E+01+
*       4.1773207325E+01               0
GRID*               3021               02.0000000000E+01-7.430166713E+01+
*       4.0190118234E+01               0
GRID*               3022               02.0000000000E+01-7.182281912E+01+
*       4.1261174198E+01               0
GRID*               3023               02.0000000000E+01-7.185376938E+01+
*       3.8576899865E+01               0
GRID*               3024               02.0000000000E+01-6.936240631E+01+
*       3.7045498233E+01               0
GRID*               3025               02.0000000000E+01-6.698878148E+01+
*       3.8114861344E+01               0
GRID*               3026               02.0000000000E+01-6.697626643E+01+
*       3.5512403748E+01               0
GRID*               3027               02.0000000000E+01-6.452045608E+01+
*       3.4039293832E+01               0
GRID*               3028               02.0000000000E+01-6.223516352E+01+
*       3.5140851129E+01               0
GRID*               3029               02.0000000000E+01-6.215297801E+01+
*       3.2598378103E+01               0
GRID*               3030               02.0000000000E+01-5.972126315E+01+
*       3.1168360622E+01               0
GRID*               3031               02.0000000000E+01-5.745348764E+01+
*       3.2287361406E+01               0
GRID*               3032               02.0000000000E+01-5.730706535E+01+
*       2.9755786627E+01               0
GRID*               3033               02.0000000000E+01-4.143203210E+01+
*       1.9365296524E+01               0
GRID*               3034               02.0000000000E+01-3.944469551E+01+
*       2.0085909224E+01               0
GRID*               3035               02.0000000000E+01-4.351009305E+01+
*       2.0766190046E+01               0
GRID*               3036               02.0000000000E+01-5.490946913E+01+
*       2.8328229724E+01               0
GRID*               3037               02.0000000000E+01-5.262275909E+01+
*       2.9382668561E+01               0
GRID*               3038               02.0000000000E+01-5.249293838E+01+
*       2.6836110873E+01               0
GRID*               3039               02.0000000000E+01-4.564376650E+01+
*       2.2342419953E+01               0
GRID*               3040               02.0000000000E+01-4.345690738E+01+
*       2.3178787423E+01               0
GRID*               3041               02.0000000000E+01-4.786228521E+01+
*       2.3812504585E+01               0
GRID*               3042               02.0000000000E+01-5.017010896E+01+
*       2.5380270775E+01               0
GRID*               3043               02.0000000000E+01-4.789840458E+01+
*       2.6322783521E+01               0
GRID*               3044               02.0000000000E+01-8.961596758E+01+
*       1.4731139092E+02               0
GRID*               3045               02.0000000000E+01-9.264627061E+01+
*       1.4731139092E+02               0
GRID*               3046               02.0000000000E+01-8.814391632E+01+
*       1.4469704417E+02               0
GRID*               3047               02.0000000000E+01-8.649703768E+01+
*       1.4220124581E+02               0
GRID*               3048               02.0000000000E+01-8.970626865E+01+
*       1.4212698348E+02               0
GRID*               3049               02.0000000000E+01-8.640673661E+01+
*       1.4738565325E+02               0
GRID*               3050               02.0000000000E+01-8.337643358E+01+
*       1.4738565325E+02               0
GRID*               3051               02.0000000000E+01-8.027826559E+01+
*       1.4740642526E+02               0
GRID*               3052               02.0000000000E+01-8.183651736E+01+
*       1.4479207851E+02               0
GRID*               3053               02.0000000000E+01-7.724796256E+01+
*       1.4740642526E+02               0
GRID*               3054               02.0000000000E+01-7.419331188E+01+
*       1.4743252713E+02               0
GRID*               3055               02.0000000000E+01-7.568369868E+01+
*       1.4483895239E+02               0
GRID*               3056               02.0000000000E+01-7.116300885E+01+
*       1.4743252713E+02               0
GRID*               3057               02.0000000000E+01-6.814911493E+01+
*       1.4744701174E+02               0
GRID*               3058               02.0000000000E+01-6.961515408E+01+
*       1.4487953887E+02               0
GRID*               3059               02.0000000000E+01-8.336624112E+01+
*       1.4214480989E+02               0
GRID*               3060               02.0000000000E+01-8.026807313E+01+
*       1.4216558190E+02               0
GRID*               3061               02.0000000000E+01-8.492859345E+01+
*       1.3957474920E+02               0
GRID*               3062               02.0000000000E+01-8.353185222E+01+
*       1.3664330742E+02               0
GRID*               3063               02.0000000000E+01-8.666264878E+01+
*       1.3669974334E+02               0
GRID*               3064               02.0000000000E+01-7.713130597E+01+
*       1.4223679989E+02               0
GRID*               3065               02.0000000000E+01-7.866102973E+01+
*       1.3958953127E+02               0
GRID*               3066               02.0000000000E+01-7.407665529E+01+
*       1.4226290176E+02               0
GRID*               3067               02.0000000000E+01-8.179674659E+01+
*       1.3403940256E+02               0
GRID*               3068               02.0000000000E+01-7.948519731E+01+
*       1.3156024301E+02               0
GRID*               3069               02.0000000000E+01-8.295435828E+01+
*       1.3128914201E+02               0
GRID*               3070               02.0000000000E+01-8.006269125E+01+
*       1.3691440842E+02               0
GRID*               3071               02.0000000000E+01-7.692592409E+01+
*       1.3698562641E+02               0
GRID*               3072               02.0000000000E+01-6.804221138E+01+
*       1.4233479745E+02               0
GRID*               3073               02.0000000000E+01-6.508059860E+01+
*       1.4235648462E+02               0
GRID*               3074               02.0000000000E+01-6.652154982E+01+
*       1.3979725860E+02               0
GRID*               3075               02.0000000000E+01-7.105610529E+01+
*       1.4232031284E+02               0
GRID*               3076               02.0000000000E+01-7.250371259E+01+
*       1.3971816034E+02               0
GRID*               3077               02.0000000000E+01-5.661143695E+01+
*       9.9740836980E+01               0
GRID*               3078               02.0000000000E+01-5.330976740E+01+
*       9.9935553757E+01               0
GRID*               3079               02.0000000000E+01-5.498574039E+01+
*       9.7268088006E+01               0
GRID*               3080               02.0000000000E+01-5.912061188E+01+
*       9.9839153067E+01               0
GRID*               3081               02.0000000000E+01-5.744463889E+01+
*       1.0250661882E+02               0
GRID*               3082               02.0000000000E+01-4.470470223E+01+
*       1.0023089642E+02               0
GRID*               3083               02.0000000000E+01-4.759199229E+01+
*       1.0020537243E+02               0
GRID*               3084               02.0000000000E+01-4.625546427E+01+
*       1.0261070234E+02               0
GRID*               3085               02.0000000000E+01-4.199959444E+01+
*       1.0017262145E+02               0
GRID*               3086               02.0000000000E+01-4.333612245E+01+
*       9.7767291532E+01               0
GRID*               3087               02.0000000000E+01-5.041341260E+01+
*       1.0002399156E+02               0
GRID*               3088               02.0000000000E+01-5.203910915E+01+
*       1.0249674054E+02               0
GRID*               3089               02.0000000000E+01-4.886265055E+01+
*       9.7644185646E+01               0
GRID*               3090               02.0000000000E+01-7.768510042E+01+
*       1.2913265592E+02               0
GRID*               3091               02.0000000000E+01-7.580488609E+01+
*       1.2690136029E+02               0
GRID*               3092               02.0000000000E+01-7.876259467E+01+
*       1.2657868683E+02               0
GRID*               3093               02.0000000000E+01-7.652748872E+01+
*       1.3188291647E+02               0
GRID*               3094               02.0000000000E+01-7.079355728E+01+
*       1.2022934317E+02               0
GRID*               3095               02.0000000000E+01-7.239688709E+01+
*       1.2243250301E+02               0
GRID*               3096               02.0000000000E+01-6.974529512E+01+
*       1.2266426788E+02               0
GRID*               3097               02.0000000000E+01-6.915596845E+01+
*       1.1808702429E+02               0
GRID*               3098               02.0000000000E+01-7.180756043E+01+
*       1.1785525942E+02               0
GRID*               3099               02.0000000000E+01-7.411550264E+01+
*       1.2460740945E+02               0
GRID*               3100               02.0000000000E+01-7.303800838E+01+
*       1.2716137854E+02               0
GRID*               3101               02.0000000000E+01-7.516376479E+01+
*       1.2217248475E+02               0
GRID*               3102               02.0000000000E+01-5.906023557E+01+
*       1.0488001436E+02               0
GRID*               3103               02.0000000000E+01-5.655106064E+01+
*       1.0478169828E+02               0
GRID*               3104               02.0000000000E+01-6.206599503E+01+
*       1.0443083610E+02               0
GRID*               3105               02.0000000000E+01-6.117241678E+01+
*       1.0670591555E+02               0
GRID*               3106               02.0000000000E+01-6.756947159E+01+
*       1.1594431158E+02               0
GRID*               3107               02.0000000000E+01-6.601452394E+01+
*       1.1381403302E+02               0
GRID*               3108               02.0000000000E+01-6.861502395E+01+
*       1.1358266198E+02               0
GRID*               3109               02.0000000000E+01-6.655546843E+01+
*       1.1831839533E+02               0
GRID*               3110               02.0000000000E+01-6.436849409E+01+
*       1.1158915868E+02               0
GRID*               3111               02.0000000000E+01-6.332294172E+01+
*       1.1395080829E+02               0
GRID*               3112               02.0000000000E+01-6.292754405E+01+
*       1.0899133562E+02               0
GRID*               3113               02.0000000000E+01-5.992178460E+01+
*       1.0944051388E+02               0
GRID*               3114               02.0000000000E+01-6.561912627E+01+
*       1.0885456035E+02               0
GRID*               3115               02.0000000000E+01-7.387778878E+01+
*       1.3714434426E+02               0
GRID*               3116               02.0000000000E+01-7.085723879E+01+
*       1.3720175535E+02               0
GRID*               3117               02.0000000000E+01-7.527945029E+01+
*       1.3446922141E+02               0
GRID*               3118               02.0000000000E+01-7.347935341E+01+
*       1.3204163432E+02               0
GRID*               3119               02.0000000000E+01-6.863967802E+01+
*       1.2503508273E+02               0
GRID*               3120               02.0000000000E+01-7.017438544E+01+
*       1.2733703490E+02               0
GRID*               3121               02.0000000000E+01-6.746543852E+01+
*       1.2750468992E+02               0
GRID*               3122               02.0000000000E+01-6.703634820E+01+
*       1.2283192289E+02               0
GRID*               3123               02.0000000000E+01-7.186376889E+01+
*       1.2963098573E+02               0
GRID*               3124               02.0000000000E+01-7.061573046E+01+
*       1.3221729068E+02               0
GRID*               3125               02.0000000000E+01-6.793265506E+01+
*       1.3728241148E+02               0
GRID*               3126               02.0000000000E+01-6.497104229E+01+
*       1.3730409864E+02               0
GRID*               3127               02.0000000000E+01-6.930673126E+01+
*       1.3470859540E+02               0
GRID*               3128               02.0000000000E+01-6.769114674E+01+
*       1.3229794681E+02               0
GRID*               3129               02.0000000000E+01-6.620853196E+01+
*       1.2987728502E+02               0
GRID*               3130               02.0000000000E+01-6.467382454E+01+
*       1.2757533284E+02               0
GRID*               3131               02.0000000000E+01-6.489953275E+01+
*       1.3236858974E+02               0
GRID*               3132               02.0000000000E+01-6.350183380E+01+
*       1.3479406392E+02               0
GRID*               3133               02.0000000000E+01-6.209072855E+01+
*       1.3730891104E+02               0
GRID*               3134               02.0000000000E+01-6.201921902E+01+
*       1.3237340214E+02               0
GRID*               3135               02.0000000000E+01-6.557369857E+01+
*       1.2067605463E+02               0
GRID*               3136               02.0000000000E+01-6.398720170E+01+
*       1.1853334192E+02               0
GRID*               3137               02.0000000000E+01-6.446808146E+01+
*       1.2304686948E+02               0
GRID*               3138               02.0000000000E+01-6.233188379E+01+
*       1.1652110179E+02               0
GRID*               3139               02.0000000000E+01-6.068585394E+01+
*       1.1429622745E+02               0
GRID*               3140               02.0000000000E+01-6.135011392E+01+
*       1.1887876108E+02               0
GRID*               3141               02.0000000000E+01-5.879507624E+01+
*       1.1209021173E+02               0
GRID*               3142               02.0000000000E+01-5.703994896E+01+
*       1.0980479166E+02               0
GRID*               3143               02.0000000000E+01-5.780401831E+01+
*       1.1466050523E+02               0
GRID*               3144               02.0000000000E+01-5.527972355E+01+
*       1.0734492804E+02               0
GRID*               3145               02.0000000000E+01-5.415301519E+01+
*       1.0999462588E+02               0
GRID*               3146               02.0000000000E+01-5.366412686E+01+
*       1.0497153250E+02               0
GRID*               3147               02.0000000000E+01-5.076777206E+01+
*       1.0505997030E+02               0
GRID*               3148               02.0000000000E+01-6.079546468E+01+
*       1.2112604372E+02               0
GRID*               3149               02.0000000000E+01-6.185859953E+01+
*       1.2311288424E+02               0
GRID*               3150               02.0000000000E+01-5.964863238E+01+
*       1.2334792674E+02               0
GRID*               3151               02.0000000000E+01-5.914014677E+01+
*       1.1911380359E+02               0
GRID*               3152               02.0000000000E+01-6.332124916E+01+
*       1.2526875251E+02               0
GRID*               3153               02.0000000000E+01-6.206434260E+01+
*       1.2764134761E+02               0
GRID*               3154               02.0000000000E+01-5.807677503E+01+
*       1.2508728553E+02               0
GRID*               3155               02.0000000000E+01-5.928963906E+01+
*       1.2758495758E+02               0
GRID*               3156               02.0000000000E+01-5.665464686E+01+
*       1.2733747584E+02               0
GRID*               3157               02.0000000000E+01-5.701364018E+01+
*       1.2310044501E+02               0
GRID*               3158               02.0000000000E+01-6.064221444E+01+
*       1.2989153792E+02               0
GRID*               3159               02.0000000000E+01-5.924451548E+01+
*       1.3231701210E+02               0
GRID*               3160               02.0000000000E+01-5.611978651E+01+
*       1.2002791306E+02               0
GRID*               3161               02.0000000000E+01-5.454792916E+01+
*       1.2176727185E+02               0
GRID*               3162               02.0000000000E+01-5.667443575E+01+
*       1.1778063043E+02               0
GRID*               3163               02.0000000000E+01-5.478365805E+01+
*       1.1557461471E+02               0
GRID*               3164               02.0000000000E+01-5.283126295E+01+
*       1.1269353897E+02               0
GRID*               3165               02.0000000000E+01-5.107103753E+01+
*       1.1023367535E+02               0
GRID*               3166               02.0000000000E+01-5.170168040E+01+
*       1.1581366417E+02               0
GRID*               3167               02.0000000000E+01-4.778680910E+01+
*       1.0514664320E+02               0
GRID*               3168               02.0000000000E+01-4.489951904E+01+
*       1.0517216720E+02               0
GRID*               3169               02.0000000000E+01-4.941182682E+01+
*       1.0762143516E+02               0
GRID*               3170               02.0000000000E+01-4.809007458E+01+
*       1.1032034825E+02               0
GRID*               3171               02.0000000000E+01-2.063127898E+01+
*       4.8885440386E+01               0
GRID*               3172               02.0000000000E+01-1.897437919E+01+
*       4.6193776999E+01               0
GRID*               3173               02.0000000000E+01-2.203491629E+01+
*       4.5949144024E+01               0
GRID*               3174               02.0000000000E+01-2.252021539E+01+
*       5.1833801249E+01               0
GRID*               3175               02.0000000000E+01-1.945967828E+01+
*       5.2078434223E+01               0
GRID*               3176               02.0000000000E+01-1.394744959E+01+
*       3.8293538525E+01               0
GRID*               3177               02.0000000000E+01-1.229713346E+01+
*       3.5861222168E+01               0
GRID*               3178               02.0000000000E+01-1.520512096E+01+
*       3.5619242139E+01               0
GRID*               3179               02.0000000000E+01-1.554996799E+01+
*       4.0878466505E+01               0
GRID*               3180               02.0000000000E+01-1.264198049E+01+
*       4.1120446534E+01               0
GRID*               3181               02.0000000000E+01-1.731125769E+01+
*       4.3481427576E+01               0
GRID*               3182               02.0000000000E+01-1.590762038E+01+
*       4.6417723937E+01               0
GRID*               3183               02.0000000000E+01-1.861672679E+01+
*       4.0654519567E+01               0
GRID*               3184               02.0000000000E+01-2.377586441E+01+
*       5.6305421968E+01               0
GRID*               3185               02.0000000000E+01-2.469012590E+01+
*       5.9429153743E+01               0
GRID*               3186               02.0000000000E+01-2.226287617E+01+
*       5.8150526861E+01               0
GRID*               3187               02.0000000000E+01-2.423495532E+01+
*       5.4031815581E+01               0
GRID*               3188               02.0000000000E+01-2.540655602E+01+
*       5.0838821744E+01               0
GRID*               3189               02.0000000000E+01-2.666220505E+01+
*       5.5310442463E+01               0
GRID*               3190               02.0000000000E+01-2.583137587E+01+
*       6.1456251709E+01               0
GRID*               3191               02.0000000000E+01-2.707455922E+01+
*       6.4004438528E+01               0
GRID*               3192               02.0000000000E+01-2.442032100E+01+
*       6.3822445455E+01               0
GRID*               3193               02.0000000000E+01-2.734436411E+01+
*       5.9611146815E+01               0
GRID*               3194               02.0000000000E+01-2.840811139E+01+
*       5.7202845088E+01               0
GRID*               3195               02.0000000000E+01-2.886720230E+01+
*       5.4929238701E+01               0
GRID*               3196               02.0000000000E+01-2.954936137E+01+
*       5.9229943054E+01               0
GRID*               3197               02.0000000000E+01-5.272659280E+01+
*       9.4793667210E+01               0
GRID*               3198               02.0000000000E+01-4.987851944E+01+
*       9.5172965955E+01               0
GRID*               3199               02.0000000000E+01-5.092104138E+01+
*       9.2503828382E+01               0
GRID*               3200               02.0000000000E+01-5.602826234E+01+
*       9.4598950433E+01               0
GRID*               3201               02.0000000000E+01-4.198030122E+01+
*       9.5809858776E+01               0
GRID*               3202               02.0000000000E+01-4.468540900E+01+
*       9.5868133754E+01               0
GRID*               3203               02.0000000000E+01-3.960277458E+01+
*       9.5139318749E+01               0
GRID*               3204               02.0000000000E+01-4.095206113E+01+
*       9.3240160972E+01               0
GRID*               3205               02.0000000000E+01-4.705709913E+01+
*       9.5354346818E+01               0
GRID*               3206               02.0000000000E+01-4.570127789E+01+
*       9.3396914063E+01               0
GRID*               3207               02.0000000000E+01-2.849177187E+01+
*       6.6435686268E+01               0
GRID*               3208               02.0000000000E+01-2.986849529E+01+
*       6.8974943272E+01               0
GRID*               3209               02.0000000000E+01-2.704022777E+01+
*       6.8909889278E+01               0
GRID*               3210               02.0000000000E+01-2.990282674E+01+
*       6.4069492521E+01               0
GRID*               3211               02.0000000000E+01-3.125356833E+01+
*       6.1497345161E+01               0
GRID*               3212               02.0000000000E+01-3.231731561E+01+
*       5.9089043434E+01               0
GRID*               3213               02.0000000000E+01-3.267078098E+01+
*       6.3928592901E+01               0
GRID*               3214               02.0000000000E+01-4.093964022E+01+
*       9.0430950782E+01               0
GRID*               3215               02.0000000000E+01-3.757049716E+01+
*       8.9803577631E+01               0
GRID*               3216               02.0000000000E+01-3.993560288E+01+
*       8.7664907470E+01               0
GRID*               3217               02.0000000000E+01-4.908821940E+01+
*       9.0179760563E+01               0
GRID*               3218               02.0000000000E+01-5.193629276E+01+
*       8.9800461818E+01               0
GRID*               3219               02.0000000000E+01-4.331716686E+01+
*       9.1101490810E+01               0
GRID*               3220               02.0000000000E+01-4.568885698E+01+
*       9.0587703874E+01               0
GRID*               3221               02.0000000000E+01-4.670410837E+01+
*       8.7884337310E+01               0
GRID*               3222               02.0000000000E+01-3.131085412E+01+
*       7.1530557409E+01               0
GRID*               3223               02.0000000000E+01-3.271771954E+01+
*       7.4076467721E+01               0
GRID*               3224               02.0000000000E+01-2.982381660E+01+
*       7.3995056594E+01               0
GRID*               3225               02.0000000000E+01-3.276239823E+01+
*       6.9056354399E+01               0
GRID*               3226               02.0000000000E+01-3.426605426E+01+
*       6.6549936549E+01               0
GRID*               3227               02.0000000000E+01-3.561679585E+01+
*       6.3977789189E+01               0
GRID*               3228               02.0000000000E+01-3.570841309E+01+
*       6.9105550686E+01               0
GRID*               3229               02.0000000000E+01-4.488862502E+01+
*       8.5218089135E+01               0
GRID*               3230               02.0000000000E+01-4.167154863E+01+
*       8.5193206816E+01               0
GRID*               3231               02.0000000000E+01-4.325542770E+01+
*       8.2119015330E+01               0
GRID*               3232               02.0000000000E+01-4.828798744E+01+
*       8.4810145824E+01               0
GRID*               3233               02.0000000000E+01-3.830240556E+01+
*       8.4565833665E+01               0
GRID*               3234               02.0000000000E+01-3.528014723E+01+
*       8.4355136948E+01               0
GRID*               3235               02.0000000000E+01-3.701609297E+01+
*       8.1883436294E+01               0
GRID*               3236               02.0000000000E+01-3.553455351E+01+
*       7.9216263845E+01               0
GRID*               3237               02.0000000000E+01-3.855681184E+01+
*       7.9426960562E+01               0
GRID*               3238               02.0000000000E+01-3.415297720E+01+
*       7.6650377509E+01               0
GRID*               3239               02.0000000000E+01-3.564001472E+01+
*       7.4185878325E+01               0
GRID*               3240               02.0000000000E+01-3.261225833E+01+
*       7.9106853241E+01               0
GRID*               3241               02.0000000000E+01-4.151339518E+01+
*       7.9470073267E+01               0
GRID*               3242               02.0000000000E+01-4.473047158E+01+
*       7.9494955585E+01               0
GRID*               3243               02.0000000000E+01-3.710176964E+01+
*       7.1716961179E+01               0
GRID*               3244               02.0000000000E+01-3.853702730E+01+
*       7.4290870967E+01               0
GRID*               3245               02.0000000000E+01-3.860542568E+01+
*       6.9210543329E+01               0
GRID*               3246               02.0000000000E+01-4.003185572E+01+
*       7.6802900817E+01               0
GRID*               3247               02.0000000000E+01-4.149361065E+01+
*       7.4333983671E+01               0
GRID*               3248               02.0000000000E+01-6.927187671E+01+
*       4.2281641956E+01               0
GRID*               3249               02.0000000000E+01-7.171977446E+01+
*       4.3894860324E+01               0
GRID*               3250               02.0000000000E+01-6.693671582E+01+
*       4.0655918103E+01               0
GRID*               3251               02.0000000000E+01-6.455057593E+01+
*       3.9122823618E+01               0
GRID*               3252               02.0000000000E+01-6.683367116E+01+
*       4.3289604230E+01               0
GRID*               3253               02.0000000000E+01-6.662917940E+01+
*       4.5846687596E+01               0
GRID*               3254               02.0000000000E+01-6.429401851E+01+
*       4.4220963744E+01               0
GRID*               3255               02.0000000000E+01-6.193077045E+01+
*       4.5107473164E+01               0
GRID*               3256               02.0000000000E+01-6.213526220E+01+
*       4.2550389798E+01               0
GRID*               3257               02.0000000000E+01-6.151812102E+01+
*       4.7618437710E+01               0
GRID*               3258               02.0000000000E+01-5.935936471E+01+
*       4.5947863763E+01               0
GRID*               3259               02.0000000000E+01-6.233844290E+01+
*       3.7620833462E+01               0
GRID*               3260               02.0000000000E+01-5.997096482E+01+
*       3.6179917733E+01               0
GRID*               3261               02.0000000000E+01-6.228637723E+01+
*       4.0161890222E+01               0
GRID*               3262               02.0000000000E+01-5.992312917E+01+
*       4.1048399642E+01               0
GRID*               3263               02.0000000000E+01-5.685581747E+01+
*       4.6589707603E+01               0
GRID*               3264               02.0000000000E+01-5.726846690E+01+
*       4.4078743057E+01               0
GRID*               3265               02.0000000000E+01-5.626244689E+01+
*       4.9273249620E+01               0
GRID*               3266               02.0000000000E+01-5.417154909E+01+
*       4.7404128914E+01               0
GRID*               3267               02.0000000000E+01-5.801305807E+01+
*       4.1966179517E+01               0
GRID*               3268               02.0000000000E+01-5.816417310E+01+
*       3.9577679941E+01               0
GRID*               3269               02.0000000000E+01-5.550951083E+01+
*       4.2608023357E+01               0
GRID*               3270               02.0000000000E+01-5.764631367E+01+
*       3.4894716133E+01               0
GRID*               3271               02.0000000000E+01-5.523211587E+01+
*       3.3482142139E+01               0
GRID*               3272               02.0000000000E+01-5.774959305E+01+
*       3.7374698466E+01               0
GRID*               3273               02.0000000000E+01-5.583952195E+01+
*       3.8292478341E+01               0
GRID*               3274               02.0000000000E+01-4.558040301E+01+
*       4.9904568150E+01               0
GRID*               3275               02.0000000000E+01-4.503717390E+01+
*       5.2948659530E+01               0
GRID*               3276               02.0000000000E+01-4.266355950E+01+
*       5.0941910836E+01               0
GRID*               3277               02.0000000000E+01-4.615070682E+01+
*       4.6973228316E+01               0
GRID*               3278               02.0000000000E+01-4.374186436E+01+
*       4.4859519330E+01               0
GRID*               3279               02.0000000000E+01-4.668578257E+01+
*       4.3934928190E+01               0
GRID*               3280               02.0000000000E+01-4.852432122E+01+
*       4.8979977010E+01               0
GRID*               3281               02.0000000000E+01-5.133640177E+01+
*       4.8068154054E+01               0
GRID*               3282               02.0000000000E+01-5.076609796E+01+
*       5.0999493888E+01               0
GRID*               3283               02.0000000000E+01-4.777606023E+01+
*       2.8938585473E+01               0
GRID*               3284               02.0000000000E+01-4.546823647E+01+
*       2.7370819283E+01               0
GRID*               3285               02.0000000000E+01-4.782300247E+01+
*       3.1667198094E+01               0
GRID*               3286               02.0000000000E+01-4.765057945E+01+
*       3.4527292321E+01               0
GRID*               3287               02.0000000000E+01-4.517346909E+01+
*       3.2846715463E+01               0
GRID*               3288               02.0000000000E+01-5.025317058E+01+
*       3.0619162332E+01               0
GRID*               3289               02.0000000000E+01-5.266970133E+01+
*       3.2111281182E+01               0
GRID*               3290               02.0000000000E+01-4.786623684E+01+
*       3.7729830812E+01               0
GRID*               3291               02.0000000000E+01-5.051577022E+01+
*       3.6550313443E+01               0
GRID*               3292               02.0000000000E+01-4.750418387E+01+
*       4.0787035569E+01               0
GRID*               3293               02.0000000000E+01-4.991302632E+01+
*       4.2900744555E+01               0
GRID*               3294               02.0000000000E+01-4.463899309E+01+
*       3.8764014447E+01               0
GRID*               3295               02.0000000000E+01-5.192977234E+01+
*       4.5384612037E+01               0
GRID*               3296               02.0000000000E+01-5.286252736E+01+
*       3.4718635909E+01               0
GRID*               3297               02.0000000000E+01-5.274817364E+01+
*       4.2236719415E+01               0
GRID*               3298               02.0000000000E+01-5.349276481E+01+
*       4.0124155875E+01               0
GRID*               3299               02.0000000000E+01-5.307818476E+01+
*       3.7921174399E+01               0
GRID*               3300               02.0000000000E+01-4.319812622E+01+
*       2.5651223004E+01               0
GRID*               3301               02.0000000000E+01-4.106445278E+01+
*       2.4074993097E+01               0
GRID*               3302               02.0000000000E+01-4.307578187E+01+
*       2.8267024957E+01               0
GRID*               3303               02.0000000000E+01-4.274435171E+01+
*       3.0986285009E+01               0
GRID*               3304               02.0000000000E+01-4.257192868E+01+
*       3.3846379236E+01               0
GRID*               3305               02.0000000000E+01-4.047424146E+01+
*       2.9266688730E+01               0
GRID*               3306               02.0000000000E+01-3.979691690E+01+
*       5.1937083764E+01               0
GRID*               3307               02.0000000000E+01-4.034014601E+01+
*       4.8892992384E+01               0
GRID*               3308               02.0000000000E+01-3.913949177E+01+
*       5.4860569798E+01               0
GRID*               3309               02.0000000000E+01-3.681607827E+01+
*       5.2811651347E+01               0
GRID*               3310               02.0000000000E+01-4.083514706E+01+
*       4.5915999472E+01               0
GRID*               3311               02.0000000000E+01-4.137022281E+01+
*       4.2877699346E+01               0
GRID*               3312               02.0000000000E+01-3.796850445E+01+
*       4.6911172400E+01               0
GRID*               3313               02.0000000000E+01-4.181621107E+01+
*       3.9843648079E+01               0
GRID*               3314               02.0000000000E+01-3.890949376E+01+
*       4.0900128221E+01               0
GRID*               3315               02.0000000000E+01-4.217826405E+01+
*       3.6786443322E+01               0
GRID*               3316               02.0000000000E+01-3.974914666E+01+
*       3.4926012868E+01               0
GRID*               3317               02.0000000000E+01-2.422492579E+01+
*       7.1072787785E+00               0
GRID*               3318               02.0000000000E+01-2.468183169E+01+
*       7.6228723582E+00               0
GRID*               3319               02.0000000000E+01-2.410562222E+01+
*       7.8328700232E+00               0
GRID*               3320               02.0000000000E+01-2.369677174E+01+
*       6.7154077795E+00               0
GRID*               3321               02.0000000000E+01-3.399059740E+01+
*       1.7669573481E+01               0
GRID*               3322               02.0000000000E+01-3.229272105E+01+
*       1.8033235006E+01               0
GRID*               3323               02.0000000000E+01-3.274048239E+01+
*       1.6207603698E+01               0
GRID*               3324               02.0000000000E+01-3.555449657E+01+
*       1.9032232861E+01               0
GRID*               3325               02.0000000000E+01-3.714670447E+01+
*       2.0781826647E+01               0
GRID*               3326               02.0000000000E+01-3.513504396E+01+
*       2.1244798575E+01               0
GRID*               3327               02.0000000000E+01-3.902524289E+01+
*       2.2298474939E+01               0
GRID*               3328               02.0000000000E+01-3.876646174E+01+
*       2.4770910520E+01               0
GRID*               3329               02.0000000000E+01-3.145828652E+01+
*       1.5014351232E+01               0
GRID*               3330               02.0000000000E+01-2.989623312E+01+
*       1.5248257438E+01               0
GRID*               3331               02.0000000000E+01-3.031191360E+01+
*       1.3691343447E+01               0
GRID*               3332               02.0000000000E+01-2.525471094E+01+
*       8.0491316935E+00               0
GRID*               3333               02.0000000000E+01-2.589526828E+01+
*       8.4613698260E+00               0
GRID*               3334               02.0000000000E+01-2.520308547E+01+
*       8.7607017354E+00               0
GRID*               3335               02.0000000000E+01-2.932067937E+01+
*       1.2607802133E+01               0
GRID*               3336               02.0000000000E+01-2.793261126E+01+
*       1.2456985033E+01               0
GRID*               3337               02.0000000000E+01-2.850343043E+01+
*       1.1139537514E+01               0
GRID*               3338               02.0000000000E+01-2.647950257E+01+
*       1.0080830141E+01               0
GRID*               3339               02.0000000000E+01-2.656578866E+01+
*       8.9321154932E+00               0
GRID*               3340               02.0000000000E+01-2.720164841E+01+
*       9.8400057663E+00               0
GRID*               3341               02.0000000000E+01-2.792493958E+01+
*       1.0275967818E+01               0
GRID*               3342               02.0000000000E+01-2.617157759E+01+
*       1.5675704498E+01               0
GRID*               3343               02.0000000000E+01-2.566771526E+01+
*       1.7860229934E+01               0
GRID*               3344               02.0000000000E+01-2.425911231E+01+
*       1.6247867827E+01               0
GRID*               3345               02.0000000000E+01-2.816502037E+01+
*       1.5606658129E+01               0
GRID*               3346               02.0000000000E+01-2.931139329E+01+
*       1.6929665914E+01               0
GRID*               3347               02.0000000000E+01-2.574221873E+01+
*       1.0702395541E+01               0
GRID*               3348               02.0000000000E+01-2.510635898E+01+
*       9.7945052674E+00               0
GRID*               3349               02.0000000000E+01-2.675641742E+01+
*       1.3994296021E+01               0
GRID*               3350               02.0000000000E+01-2.593916848E+01+
*       1.2526031402E+01               0
GRID*               3351               02.0000000000E+01-2.208220170E+01+
*       1.7103754383E+01               0
GRID*               3352               02.0000000000E+01-2.258606403E+01+
*       1.4919228946E+01               0
GRID*               3353               02.0000000000E+01-2.196118276E+01+
*       1.9048009201E+01               0
GRID*               3354               02.0000000000E+01-2.028813448E+01+
*       1.7719370319E+01               0
GRID*               3355               02.0000000000E+01-2.359256868E+01+
*       8.5283176379E+00               0
GRID*               3356               02.0000000000E+01-2.313566277E+01+
*       8.0127240582E+00               0
GRID*               3357               02.0000000000E+01-2.456602489E+01+
*       1.2239706529E+01               0
GRID*               3358               02.0000000000E+01-2.302745574E+01+
*       1.2830095313E+01               0
GRID*               3359               02.0000000000E+01-2.085054512E+01+
*       1.3685981868E+01               0
GRID*               3360               02.0000000000E+01-2.283050598E+01+
*       1.1006459451E+01               0
GRID*               3361               02.0000000000E+01-2.446580163E+01+
*       9.3822671349E+00               0
GRID*               3362               02.0000000000E+01-2.349584218E+01+
*       9.5621211699E+00               0
GRID*               3363               02.0000000000E+01-2.195727303E+01+
*       1.0152509954E+01               0
GRID*               3364               02.0000000000E+01-2.142959422E+01+
*       2.1128409022E+01               0
GRID*               3365               02.0000000000E+01-2.322366144E+01+
*       2.0512793085E+01               0
GRID*               3366               02.0000000000E+01-1.635187064E+01+
*       3.2846385170E+01               0
GRID*               3367               02.0000000000E+01-1.800218677E+01+
*       3.5278701527E+01               0
GRID*               3368               02.0000000000E+01-2.036566800E+01+
*       2.2922194420E+01               0
GRID*               3369               02.0000000000E+01-1.910318932E+01+
*       2.1457410535E+01               0
GRID*               3370               02.0000000000E+01-2.189580089E+01+
*       2.4924073135E+01               0
GRID*               3371               02.0000000000E+01-1.956939599E+01+
*       2.5253074649E+01               0
GRID*               3372               02.0000000000E+01-1.847591380E+01+
*       2.7644026380E+01               0
GRID*               3373               02.0000000000E+01-1.694578091E+01+
*       2.5642147664E+01               0
GRID*               3374               02.0000000000E+01-1.750061758E+01+
*       3.0269471976E+01               0
GRID*               3375               02.0000000000E+01-1.470355178E+01+
*       3.0610012589E+01               0
GRID*               3376               02.0000000000E+01-2.012423266E+01+
*       2.9880398961E+01               0
GRID*               3377               02.0000000000E+01-3.739738332E+01+
*       3.2947766894E+01               0
GRID*               3378               02.0000000000E+01-3.700371868E+01+
*       3.5887830980E+01               0
GRID*               3379               02.0000000000E+01-3.823529126E+01+
*       2.7366337783E+01               0
GRID*               3380               02.0000000000E+01-3.619608138E+01+
*       2.5589819625E+01               0
GRID*               3381               02.0000000000E+01-3.790386110E+01+
*       3.0085597835E+01               0
GRID*               3382               02.0000000000E+01-3.515843312E+01+
*       3.1047415947E+01               0
GRID*               3383               02.0000000000E+01-3.349549507E+01+
*       2.6042538378E+01               0
GRID*               3384               02.0000000000E+01-3.402666555E+01+
*       2.3447111115E+01               0
GRID*               3385               02.0000000000E+01-3.077951054E+01+
*       2.6859775617E+01               0
GRID*               3386               02.0000000000E+01-2.818763689E+01+
*       2.7909083577E+01               0
GRID*               3387               02.0000000000E+01-2.873420560E+01+
*       2.4949137828E+01               0
GRID*               3388               02.0000000000E+01-3.294892636E+01+
*       2.9002484127E+01               0
GRID*               3389               02.0000000000E+01-3.244244859E+01+
*       3.1864653187E+01               0
GRID*               3390               02.0000000000E+01-2.478845286E+01+
*       2.1925172235E+01               0
GRID*               3391               02.0000000000E+01-2.651358238E+01+
*       2.3627798676E+01               0
GRID*               3392               02.0000000000E+01-2.441720243E+01+
*       2.4295819347E+01               0
GRID*               3393               02.0000000000E+01-2.532004140E+01+
*       1.9844772414E+01               0
GRID*               3394               02.0000000000E+01-2.723250668E+01+
*       1.9272609085E+01               0
GRID*               3395               02.0000000000E+01-3.054898404E+01+
*       1.8086784643E+01               0
GRID*               3396               02.0000000000E+01-3.179909905E+01+
*       1.9548754426E+01               0
GRID*               3397               02.0000000000E+01-2.881777129E+01+
*       1.8445185334E+01               0
GRID*               3398               02.0000000000E+01-2.847009742E+01+
*       2.0429727813E+01               0
GRID*               3399               02.0000000000E+01-2.910545603E+01+
*       2.2578490716E+01               0
GRID*               3400               02.0000000000E+01-3.243445765E+01+
*       2.1697517329E+01               0
GRID*               3401               02.0000000000E+01-3.069072064E+01+
*       2.1751066965E+01               0
GRID*               3402               02.0000000000E+01-2.290872330E+01+
*       2.9334791555E+01               0
GRID*               3403               02.0000000000E+01-2.193342709E+01+
*       3.1960237151E+01               0
GRID*               3404               02.0000000000E+01-2.543012484E+01+
*       2.8706537767E+01               0
GRID*               3405               02.0000000000E+01-2.747542978E+01+
*       3.0617175556E+01               0
GRID*               3406               02.0000000000E+01-2.362093041E+01+
*       2.6626699576E+01               0
GRID*               3407               02.0000000000E+01-2.956257814E+01+
*       3.2827477347E+01               0
GRID*               3408               02.0000000000E+01-2.680506610E+01+
*       3.3624931537E+01               0
GRID*               3409               02.0000000000E+01-3.177208490E+01+
*       3.4872409167E+01               0
GRID*               3410               02.0000000000E+01-3.413193118E+01+
*       3.6987518644E+01               0
GRID*               3411               02.0000000000E+01-3.125206074E+01+
*       3.7950342805E+01               0
GRID*               3412               02.0000000000E+01-3.648369452E+01+
*       3.8965764618E+01               0
GRID*               3413               02.0000000000E+01-3.603770626E+01+
*       4.1999815884E+01               0
GRID*               3414               02.0000000000E+01-2.100076451E+01+
*       3.4892086102E+01               0
GRID*               3415               02.0000000000E+01-1.985401484E+01+
*       3.7664943071E+01               0
GRID*               3416               02.0000000000E+01-2.378525516E+01+
*       3.4346478696E+01               0
GRID*               3417               02.0000000000E+01-2.587240352E+01+
*       3.6556780487E+01               0
GRID*               3418               02.0000000000E+01-2.808783559E+01+
*       3.9328500994E+01               0
GRID*               3419               02.0000000000E+01-2.506802465E+01+
*       4.0050048153E+01               0
GRID*               3420               02.0000000000E+01-3.570679938E+01+
*       4.5058776951E+01               0
GRID*               3421               02.0000000000E+01-3.521179833E+01+
*       4.8035769863E+01               0
GRID*               3422               02.0000000000E+01-3.044768186E+01+
*       4.1443610471E+01               0
GRID*               3423               02.0000000000E+01-3.328100013E+01+
*       4.3124413348E+01               0
GRID*               3424               02.0000000000E+01-3.011677498E+01+
*       4.4502571537E+01               0
GRID*               3425               02.0000000000E+01-2.161530454E+01+
*       4.0267904142E+01               0
GRID*               3426               02.0000000000E+01-2.383073660E+01+
*       4.3039624649E+01               0
GRID*               3427               02.0000000000E+01-2.796784504E+01+
*       4.5694601180E+01               0
GRID*               3428               02.0000000000E+01-3.080116331E+01+
*       4.7375404057E+01               0
GRID*               3429               02.0000000000E+01-2.548763640E+01+
*       4.5731288036E+01               0
GRID*               3430               02.0000000000E+01-2.617202473E+01+
*       4.8604120555E+01               0
GRID*               3431               02.0000000000E+01-3.137920627E+01+
*       5.4266145615E+01               0
GRID*               3432               02.0000000000E+01-2.963329992E+01+
*       5.2373742990E+01               0
GRID*               3433               02.0000000000E+01-3.415197852E+01+
*       5.3722893643E+01               0
GRID*               3434               02.0000000000E+01-3.480940365E+01+
*       5.0799407608E+01               0
GRID*               3435               02.0000000000E+01-3.338588090E+01+
*       5.6278389354E+01               0
GRID*               3436               02.0000000000E+01-3.254769858E+01+
*       4.8947012159E+01               0
GRID*               3437               02.0000000000E+01-3.039876863E+01+
*       5.0139041802E+01               0
GRID*               3438               02.0000000000E+01-2.788676466E+01+
*       5.0802134888E+01               0
GRID*               3439               02.0000000000E+01-6.894683720E+01+
*       4.7609702233E+01               0
GRID*               3440               02.0000000000E+01-6.640718455E+01+
*       4.8541061746E+01               0
GRID*               3441               02.0000000000E+01-7.158584740E+01+
*       4.6636610279E+01               0
GRID*               3442               02.0000000000E+01-7.413678981E+01+
*       4.5616142520E+01               0
GRID*               3443               02.0000000000E+01-7.136385255E+01+
*       4.9330984429E+01               0
GRID*               3444               02.0000000000E+01-7.379500423E+01+
*       5.1161742419E+01               0
GRID*               3445               02.0000000000E+01-7.115599403E+01+
*       5.2134834373E+01               0
GRID*               3446               02.0000000000E+01-7.631820934E+01+
*       5.2938616962E+01               0
GRID*               3447               02.0000000000E+01-7.887415947E+01+
*       5.4875803904E+01               0
GRID*               3448               02.0000000000E+01-7.614309584E+01+
*       5.5902779305E+01               0
GRID*               3449               02.0000000000E+01-7.652606786E+01+
*       5.0134767018E+01               0
GRID*               3450               02.0000000000E+01-7.664759053E+01+
*       4.7288844780E+01               0
GRID*               3451               02.0000000000E+01-7.917079564E+01+
*       4.9065719323E+01               0
GRID*               3452               02.0000000000E+01-9.744467750E+01+
*       6.7276434321E+01               0
GRID*               3453               02.0000000000E+01-9.744467750E+01+
*       7.0276434321E+01               0
GRID*               3454               02.0000000000E+01-9.741179734E+01+
*       6.4275862917E+01               0
GRID*               3455               02.0000000000E+01-9.741179734E+01+
*       6.1275862917E+01               0
GRID*               3456               02.0000000000E+01-9.485647484E+01+
*       6.5552297238E+01               0
GRID*               3457               02.0000000000E+01-9.226755628E+01+
*       6.6838080102E+01               0
GRID*               3458               02.0000000000E+01-9.223467612E+01+
*       6.3837508697E+01               0
GRID*               3459               02.0000000000E+01-9.482738133E+01+
*       5.9549638538E+01               0
GRID*               3460               02.0000000000E+01-9.219750599E+01+
*       6.0813192301E+01               0
GRID*               3461               02.0000000000E+01-9.220129265E+01+
*       5.7811105006E+01               0
GRID*               3462               02.0000000000E+01-8.960858743E+01+
*       6.2098975165E+01               0
GRID*               3463               02.0000000000E+01-8.690587782E+01+
*       6.3377330142E+01               0
GRID*               3464               02.0000000000E+01-8.686870769E+01+
*       6.0353013746E+01               0
GRID*               3465               02.0000000000E+01-8.420841424E+01+
*       5.8579094403E+01               0
GRID*               3466               02.0000000000E+01-8.691112386E+01+
*       5.7300739425E+01               0
GRID*               3467               02.0000000000E+01-8.147493819E+01+
*       5.6683393164E+01               0
GRID*               3468               02.0000000000E+01-8.165005169E+01+
*       5.3719230821E+01               0
GRID*               3469               02.0000000000E+01-8.143252203E+01+
*       5.9735667486E+01               0
GRID*               3470               02.0000000000E+01-8.173659646E+01+
*       5.0776767582E+01               0
GRID*               3471               02.0000000000E+01-8.433737519E+01+
*       5.2584356842E+01               0
GRID*               3472               02.0000000000E+01-8.959818664E+01+
*       5.6084985148E+01               0
GRID*               3473               02.0000000000E+01-8.693789320E+01+
*       5.4311065804E+01               0
GRID*               3474               02.0000000000E+01-7.082834973E+01+
*       5.4885128675E+01               0
GRID*               3475               02.0000000000E+01-6.839719805E+01+
*       5.3054370685E+01               0
GRID*               3476               02.0000000000E+01-7.322097335E+01+
*       5.6846232364E+01               0
GRID*               3477               02.0000000000E+01-7.046217738E+01+
*       5.7765768676E+01               0
GRID*               3478               02.0000000000E+01-6.375492720E+01+
*       4.9444492976E+01               0
GRID*               3479               02.0000000000E+01-6.118352146E+01+
*       5.0284883576E+01               0
GRID*               3480               02.0000000000E+01-6.607258499E+01+
*       5.1207507612E+01               0
GRID*               3481               02.0000000000E+01-6.574494070E+01+
*       5.3957801915E+01               0
GRID*               3482               02.0000000000E+01-9.746619046E+01+
*       7.3267866686E+01               0
GRID*               3483               02.0000000000E+01-9.746619046E+01+
*       7.6267866686E+01               0
GRID*               3484               02.0000000000E+01-9.491086795E+01+
*       7.1544301007E+01               0
GRID*               3485               02.0000000000E+01-9.234817576E+01+
*       7.2838719069E+01               0
GRID*               3486               02.0000000000E+01-9.232666280E+01+
*       6.9847286705E+01               0
GRID*               3487               02.0000000000E+01-8.970486408E+01+
*       6.8132498164E+01               0
GRID*               3488               02.0000000000E+01-8.706605397E+01+
*       6.9490479049E+01               0
GRID*               3489               02.0000000000E+01-8.700694745E+01+
*       6.6481272446E+01               0
GRID*               3490               02.0000000000E+01-7.577692349E+01+
*       5.8783419306E+01               0
GRID*               3491               02.0000000000E+01-7.837983413E+01+
*       6.1178876240E+01               0
GRID*               3492               02.0000000000E+01-7.545771164E+01+
*       6.2122329299E+01               0
GRID*               3493               02.0000000000E+01-8.111331018E+01+
*       6.3074577478E+01               0
GRID*               3494               02.0000000000E+01-8.426706771E+01+
*       6.4735311028E+01               0
GRID*               3495               02.0000000000E+01-8.121437981E+01+
*       6.6178519782E+01               0
GRID*               3496               02.0000000000E+01-9.747647857E+01+
*       7.9241862015E+01               0
GRID*               3497               02.0000000000E+01-9.747647857E+01+
*       8.2241862015E+01               0
GRID*               3498               02.0000000000E+01-5.852127509E+01+
*       5.1163906275E+01               0
GRID*               3499               02.0000000000E+01-5.583700671E+01+
*       5.1978327586E+01               0
GRID*               3500               02.0000000000E+01-9.494266903E+01+
*       7.7509728700E+01               0
GRID*               3501               02.0000000000E+01-9.240937086E+01+
*       7.8768164260E+01               0
GRID*               3502               02.0000000000E+01-9.239908274E+01+
*       7.5794168931E+01               0
GRID*               3503               02.0000000000E+01-6.075808127E+01+
*       5.2989961541E+01               0
GRID*               3504               02.0000000000E+01-6.303788103E+01+
*       5.4828567045E+01               0
GRID*               3505               02.0000000000E+01-6.037563466E+01+
*       5.5707589744E+01               0
GRID*               3506               02.0000000000E+01-8.981487759E+01+
*       7.4097154629E+01               0
GRID*               3507               02.0000000000E+01-8.728658318E+01+
*       7.5407340078E+01               0
GRID*               3508               02.0000000000E+01-8.723567620E+01+
*       7.2451890216E+01               0
GRID*               3509               02.0000000000E+01-6.536249409E+01+
*       5.6675430117E+01               0
GRID*               3510               02.0000000000E+01-6.765292694E+01+
*       5.8550010260E+01               0
GRID*               3511               02.0000000000E+01-6.494586727E+01+
*       5.9420775391E+01               0
GRID*               3512               02.0000000000E+01-8.453775957E+01+
*       7.0800664498E+01               0
GRID*               3513               02.0000000000E+01-8.210571182E+01+
*       7.2273548415E+01               0
GRID*               3514               02.0000000000E+01-8.193608959E+01+
*       6.9312137248E+01               0
GRID*               3515               02.0000000000E+01-7.004555056E+01+
*       6.0511113949E+01               0
GRID*               3516               02.0000000000E+01-7.225302065E+01+
*       6.2460397655E+01               0
GRID*               3517               02.0000000000E+01-6.944377021E+01+
*       6.3244639239E+01               0
GRID*               3518               02.0000000000E+01-7.878233206E+01+
*       6.7651403699E+01               0
GRID*               3519               02.0000000000E+01-7.723208329E+01+
*       6.9807044434E+01               0
GRID*               3520               02.0000000000E+01-7.651037351E+01+
*       6.6673426968E+01               0
GRID*               3521               02.0000000000E+01-7.485593129E+01+
*       6.4855854589E+01               0
GRID*               3522               02.0000000000E+01-7.330568252E+01+
*       6.7011495324E+01               0
GRID*               3523               02.0000000000E+01-6.900935549E+01+
*       6.5905430697E+01               0
GRID*               3524               02.0000000000E+01-6.680188539E+01+
*       6.3956146992E+01               0
GRID*               3525               02.0000000000E+01-7.115491563E+01+
*       6.7682723019E+01               0
GRID*               3526               02.0000000000E+01-6.851303082E+01+
*       6.8394230771E+01               0
GRID*               3527               02.0000000000E+01-6.455624819E+01+
*       6.2125220765E+01               0
GRID*               3528               02.0000000000E+01-6.226581535E+01+
*       6.0250640622E+01               0
GRID*               3529               02.0000000000E+01-6.412183348E+01+
*       6.4786012223E+01               0
GRID*               3530               02.0000000000E+01-5.999061450E+01+
*       5.8446583068E+01               0
GRID*               3531               02.0000000000E+01-5.771081474E+01+
*       5.6607977564E+01               0
GRID*               3532               02.0000000000E+01-5.960099543E+01+
*       6.1151028442E+01               0
GRID*               3533               02.0000000000E+01-5.314105597E+01+
*       5.2912547077E+01               0
GRID*               3534               02.0000000000E+01-5.032897542E+01+
*       5.3824370034E+01               0
GRID*               3535               02.0000000000E+01-5.539988417E+01+
*       5.4803203732E+01               0
GRID*               3536               02.0000000000E+01-5.501486401E+01+
*       5.7542197055E+01               0
GRID*               3537               02.0000000000E+01-8.987404088E+01+
*       7.9980912150E+01               0
GRID*               3538               02.0000000000E+01-8.735435509E+01+
*       8.1209455449E+01               0
GRID*               3539               02.0000000000E+01-8.734609878E+01+
*       7.8281147789E+01               0
GRID*               3540               02.0000000000E+01-9.241762717E+01+
*       8.1696471920E+01               0
GRID*               3541               02.0000000000E+01-9.746827439E+01+
*       8.5208297861E+01               0
GRID*               3542               02.0000000000E+01-9.746827439E+01+
*       8.8208297861E+01               0
GRID*               3543               02.0000000000E+01-9.494475296E+01+
*       8.3450159875E+01               0
GRID*               3544               02.0000000000E+01-9.240942298E+01+
*       8.4662907766E+01               0
GRID*               3545               02.0000000000E+01-8.476689739E+01+
*       7.6635883377E+01               0
GRID*               3546               02.0000000000E+01-8.231676619E+01+
*       7.7894279391E+01               0
GRID*               3547               02.0000000000E+01-8.225725059E+01+
*       7.5020471679E+01               0
GRID*               3548               02.0000000000E+01-7.965558061E+01+
*       7.3531944429E+01               0
GRID*               3549               02.0000000000E+01-7.741296700E+01+
*       7.4789986241E+01               0
GRID*               3550               02.0000000000E+01-7.726142823E+01+
*       7.2043062976E+01               0
GRID*               3551               02.0000000000E+01-7.498946968E+01+
*       7.1065086245E+01               0
GRID*               3552               02.0000000000E+01-7.280935785E+01+
*       6.9500295398E+01               0
GRID*               3553               02.0000000000E+01-7.283870279E+01+
*       7.1736313940E+01               0
GRID*               3554               02.0000000000E+01-5.471421517E+01+
*       6.0339173227E+01               0
GRID*               3555               02.0000000000E+01-5.240328460E+01+
*       5.8534399395E+01               0
GRID*               3556               02.0000000000E+01-5.698368744E+01+
*       6.2038907997E+01               0
GRID*               3557               02.0000000000E+01-5.437210803E+01+
*       6.3031110336E+01               0
GRID*               3558               02.0000000000E+01-4.757825920E+01+
*       5.4916424796E+01               0
GRID*               3559               02.0000000000E+01-4.466141569E+01+
*       5.5953767481E+01               0
GRID*               3560               02.0000000000E+01-4.995321721E+01+
*       5.6829477985E+01               0
GRID*               3561               02.0000000000E+01-4.965256838E+01+
*       5.9626454157E+01               0
GRID*               3562               02.0000000000E+01-5.925888829E+01+
*       6.3842965551E+01               0
GRID*               3563               02.0000000000E+01-6.150098146E+01+
*       6.5621877048E+01               0
GRID*               3564               02.0000000000E+01-5.888367347E+01+
*       6.6509756602E+01               0
GRID*               3565               02.0000000000E+01-6.815553992E+01+
*       7.1020764830E+01               0
GRID*               3566               02.0000000000E+01-6.600997978E+01+
*       6.9243472509E+01               0
GRID*               3567               02.0000000000E+01-7.044199553E+01+
*       7.2736377072E+01               0
GRID*               3568               02.0000000000E+01-6.793894448E+01+
*       7.3585618809E+01               0
GRID*               3569               02.0000000000E+01-6.374661866E+01+
*       6.7452803274E+01               0
GRID*               3570               02.0000000000E+01-6.338912776E+01+
*       7.0079337333E+01               0
GRID*               3571               02.0000000000E+01-8.985032807E+01+
*       8.5838127358E+01               0
GRID*               3572               02.0000000000E+01-8.730385128E+01+
*       8.7013866963E+01               0
GRID*               3573               02.0000000000E+01-8.733582040E+01+
*       8.4084959414E+01               0
GRID*               3574               02.0000000000E+01-9.237745386E+01+
*       8.7591815314E+01               0
GRID*               3575               02.0000000000E+01-9.744251782E+01+
*       9.1177090204E+01               0
GRID*               3576               02.0000000000E+01-9.744251782E+01+
*       9.4177090204E+01               0
GRID*               3577               02.0000000000E+01-9.491079221E+01+
*       8.9385388064E+01               0
GRID*               3578               02.0000000000E+01-9.235169729E+01+
*       9.0560607657E+01               0
GRID*               3579               02.0000000000E+01-8.480787831E+01+
*       8.2385195054E+01               0
GRID*               3580               02.0000000000E+01-8.229954002E+01+
*       8.3560072895E+01               0
GRID*               3581               02.0000000000E+01-8.231807471E+01+
*       8.0684568930E+01               0
GRID*               3582               02.0000000000E+01-7.262210735E+01+
*       7.4301167919E+01               0
GRID*               3583               02.0000000000E+01-7.980842790E+01+
*       7.9069157233E+01               0
GRID*               3584               02.0000000000E+01-7.737083408E+01+
*       8.0216598515E+01               0
GRID*               3585               02.0000000000E+01-7.736952556E+01+
*       7.7426308976E+01               0
GRID*               3586               02.0000000000E+01-7.497537318E+01+
*       7.5937427523E+01               0
GRID*               3587               02.0000000000E+01-7.257866592E+01+
*       7.6937490654E+01               0
GRID*               3588               02.0000000000E+01-3.509008786E+01+
*       5.8545791461E+01               0
GRID*               3589               02.0000000000E+01-7.484935093E+01+
*       8.1338359073E+01               0
GRID*               3590               02.0000000000E+01-7.728825327E+01+
*       8.2981207330E+01               0
GRID*               3591               02.0000000000E+01-7.233865682E+01+
*       8.2422706689E+01               0
GRID*               3592               02.0000000000E+01-7.221020778E+01+
*       8.5200815548E+01               0
GRID*               3593               02.0000000000E+01-6.978209449E+01+
*       8.3520554347E+01               0
GRID*               3594               02.0000000000E+01-7.242123764E+01+
*       7.9658097873E+01               0
GRID*               3595               02.0000000000E+01-7.006797181E+01+
*       7.8021838269E+01               0
GRID*               3596               02.0000000000E+01-6.767604029E+01+
*       7.6298751466E+01               0
GRID*               3597               02.0000000000E+01-6.538958469E+01+
*       7.4583139225E+01               0
GRID*               3598               02.0000000000E+01-6.751861201E+01+
*       7.9019358685E+01               0
GRID*               3599               02.0000000000E+01-6.720514320E+01+
*       8.4591903695E+01               0
GRID*               3600               02.0000000000E+01-6.706221246E+01+
*       8.7411773824E+01               0
GRID*               3601               02.0000000000E+01-6.461371022E+01+
*       8.5705014312E+01               0
GRID*               3602               02.0000000000E+01-6.733359224E+01+
*       8.1813794836E+01               0
GRID*               3603               02.0000000000E+01-6.494166073E+01+
*       8.0090708033E+01               0
GRID*               3604               02.0000000000E+01-6.201882319E+01+
*       8.6838029144E+01               0
GRID*               3605               02.0000000000E+01-6.186265714E+01+
*       8.9629847442E+01               0
GRID*               3606               02.0000000000E+01-5.941070086E+01+
*       8.7942992145E+01               0
GRID*               3607               02.0000000000E+01-6.216175393E+01+
*       8.4018159015E+01               0
GRID*               3608               02.0000000000E+01-5.965556877E+01+
*       8.2248482620E+01               0
GRID*               3609               02.0000000000E+01-6.225045580E+01+
*       8.1115467788E+01               0
GRID*               3610               02.0000000000E+01-6.302607019E+01+
*       7.2773364065E+01               0
GRID*               3611               02.0000000000E+01-6.076270907E+01+
*       7.0982694830E+01               0
GRID*               3612               02.0000000000E+01-6.276316600E+01+
*       7.5486496722E+01               0
GRID*               3613               02.0000000000E+01-6.243547558E+01+
*       7.8321031638E+01               0
GRID*               3614               02.0000000000E+01-6.007196108E+01+
*       7.6511256477E+01               0
GRID*               3615               02.0000000000E+01-4.772782441E+01+
*       7.9345979421E+01               0
GRID*               3616               02.0000000000E+01-4.598579189E+01+
*       7.6697037357E+01               0
GRID*               3617               02.0000000000E+01-5.002639782E+01+
*       8.2038558413E+01               0
GRID*               3618               02.0000000000E+01-5.184188116E+01+
*       8.4704806588E+01               0
GRID*               3619               02.0000000000E+01-5.128171813E+01+
*       7.9240640185E+01               0
GRID*               3620               02.0000000000E+01-5.193003100E+01+
*       7.5987138250E+01               0
GRID*               3621               02.0000000000E+01-5.422860441E+01+
*       7.8679717243E+01               0
GRID*               3622               02.0000000000E+01-5.731059397E+01+
*       7.7386003351E+01               0
GRID*               3623               02.0000000000E+01-5.666228109E+01+
*       8.0639505285E+01               0
GRID*               3624               02.0000000000E+01-5.763828439E+01+
*       7.4551468435E+01               0
GRID*               3625               02.0000000000E+01-5.726728309E+01+
*       8.9140637020E+01               0
GRID*               3626               02.0000000000E+01-5.742344913E+01+
*       8.6348818722E+01               0
GRID*               3627               02.0000000000E+01-5.452457305E+01+
*       8.9835496617E+01               0
GRID*               3628               02.0000000000E+01-5.269175107E+01+
*       8.7511428799E+01               0
GRID*               3629               02.0000000000E+01-5.651182478E+01+
*       9.1429670040E+01               0
GRID*               3630               02.0000000000E+01-5.443016145E+01+
*       8.4739841387E+01               0
GRID*               3631               02.0000000000E+01-5.657357922E+01+
*       8.3542196512E+01               0
GRID*               3632               02.0000000000E+01-5.815092787E+01+
*       7.1841441667E+01               0
GRID*               3633               02.0000000000E+01-5.538956076E+01+
*       7.2716188540E+01               0
GRID*               3634               02.0000000000E+01-5.851398544E+01+
*       6.9147414935E+01               0
GRID*               3635               02.0000000000E+01-5.627189227E+01+
*       6.7368503439E+01               0
GRID*               3636               02.0000000000E+01-5.415798615E+01+
*       6.5640894046E+01               0
GRID*               3637               02.0000000000E+01-5.188851388E+01+
*       6.3941159276E+01               0
GRID*               3638               02.0000000000E+01-5.378829812E+01+
*       6.8278552379E+01               0
GRID*               3639               02.0000000000E+01-5.280311246E+01+
*       7.3413945144E+01               0
GRID*               3640               02.0000000000E+01-4.985622618E+01+
*       7.3974868086E+01               0
GRID*               3641               02.0000000000E+01-5.331575594E+01+
*       7.0703918376E+01               0
GRID*               3642               02.0000000000E+01-5.120184982E+01+
*       6.8976308983E+01               0
GRID*               3643               02.0000000000E+01-4.727434927E+01+
*       7.4270108601E+01               0
GRID*               3644               02.0000000000E+01-4.814743073E+01+
*       7.1696915495E+01               0
GRID*               3645               02.0000000000E+01-4.427699644E+01+
*       7.4419084766E+01               0
GRID*               3646               02.0000000000E+01-4.278216803E+01+
*       7.1907054916E+01               0
GRID*               3647               02.0000000000E+01-4.155847840E+01+
*       5.7462348786E+01               0
GRID*               3648               02.0000000000E+01-3.857763977E+01+
*       5.8336916369E+01               0
GRID*               3649               02.0000000000E+01-4.409956369E+01+
*       5.9430114053E+01               0
GRID*               3650               02.0000000000E+01-4.408914988E+01+
*       6.2332781270E+01               0
GRID*               3651               02.0000000000E+01-4.515826627E+01+
*       6.5497306408E+01               0
GRID*               3652               02.0000000000E+01-4.206574279E+01+
*       6.4103220495E+01               0
GRID*               3653               02.0000000000E+01-4.719208717E+01+
*       6.0824199965E+01               0
GRID*               3654               02.0000000000E+01-4.966062129E+01+
*       6.7366285092E+01               0
GRID*               3655               02.0000000000E+01-4.918807911E+01+
*       6.9791651089E+01               0
GRID*               3656               02.0000000000E+01-4.741426197E+01+
*       6.5954247190E+01               0
GRID*               3657               02.0000000000E+01-4.942803268E+01+
*       6.5138905084E+01               0
GRID*               3658               02.0000000000E+01-4.964215456E+01+
*       6.2529121375E+01               0
GRID*               3659               02.0000000000E+01-3.750907448E+01+
*       6.1147570449E+01               0
GRID*               3660               02.0000000000E+01-3.910434776E+01+
*       6.3768914097E+01               0
GRID*               3661               02.0000000000E+01-4.539085488E+01+
*       6.7724686416E+01               0
GRID*               3662               02.0000000000E+01-4.017346415E+01+
*       6.6933439235E+01               0
GRID*               3663               02.0000000000E+01-4.156682070E+01+
*       6.9544849727E+01               0
GRID*               3664               02.0000000000E+01-4.435020650E+01+
*       6.9629950822E+01               0
GRID*               3665               02.0000000000E+01-4.660620220E+01+
*       7.0086891604E+01               0
GRID*               3666               02.0000000000E+01-9.740231077E+01+
*       9.7155337481E+01               0
GRID*               3667               02.0000000000E+01-9.740231077E+01+
*       1.0015533748E+02               0
GRID*               3668               02.0000000000E+01-9.484482858E+01+
*       9.5332427684E+01               0
GRID*               3669               02.0000000000E+01-9.224592604E+01+
*       9.6482651089E+01               0
GRID*               3670               02.0000000000E+01-9.228613309E+01+
*       9.3504403812E+01               0
GRID*               3671               02.0000000000E+01-8.975279475E+01+
*       9.1710831062E+01               0
GRID*               3672               02.0000000000E+01-8.716629005E+01+
*       9.2853448575E+01               0
GRID*               3673               02.0000000000E+01-8.723185424E+01+
*       8.9909652420E+01               0
GRID*               3674               02.0000000000E+01-7.973871999E+01+
*       8.4699933111E+01               0
GRID*               3675               02.0000000000E+01-7.721723684E+01+
*       8.5821693669E+01               0
GRID*               3676               02.0000000000E+01-8.471734658E+01+
*       8.8156484476E+01               0
GRID*               3677               02.0000000000E+01-8.222852359E+01+
*       8.6400559234E+01               0
GRID*               3678               02.0000000000E+01-8.215652655E+01+
*       8.9296344691E+01               0
GRID*               3679               02.0000000000E+01-8.959290351E+01+
*       9.7627151065E+01               0
GRID*               3680               02.0000000000E+01-8.695112536E+01+
*       9.8749978923E+01               0
GRID*               3681               02.0000000000E+01-8.704545240E+01+
*       9.5777455076E+01               0
GRID*               3682               02.0000000000E+01-9.215159900E+01+
*       9.9455174937E+01               0
GRID*               3683               02.0000000000E+01-9.735266553E+01+
*       1.0314255868E+02               0
GRID*               3684               02.0000000000E+01-9.735266553E+01+
*       1.0614255868E+02               0
GRID*               3685               02.0000000000E+01-9.475497630E+01+
*       1.0129789616E+02               0
GRID*               3686               02.0000000000E+01-9.210195377E+01+
*       1.0244239614E+02               0
GRID*               3687               02.0000000000E+01-8.452451189E+01+
*       9.3976276434E+01               0
GRID*               3688               02.0000000000E+01-8.191969422E+01+
*       9.5087379100E+01               0
GRID*               3689               02.0000000000E+01-8.204053187E+01+
*       9.2163372599E+01               0
GRID*               3690               02.0000000000E+01-7.464808115E+01+
*       8.6934448249E+01               0
GRID*               3691               02.0000000000E+01-7.209151882E+01+
*       8.8032295907E+01               0
GRID*               3692               02.0000000000E+01-7.709854788E+01+
*       8.8653174029E+01               0
GRID*               3693               02.0000000000E+01-7.955170888E+01+
*       9.0407447358E+01               0
GRID*               3694               02.0000000000E+01-7.698255320E+01+
*       9.1520201937E+01               0
GRID*               3695               02.0000000000E+01-8.939698615E+01+
*       1.0361363580E+02               0
GRID*               3696               02.0000000000E+01-8.666507724E+01+
*       1.0475125454E+02               0
GRID*               3697               02.0000000000E+01-8.676666757E+01+
*       1.0173729365E+02               0
GRID*               3698               02.0000000000E+01-9.200036345E+01+
*       1.0545635702E+02               0
GRID*               3699               02.0000000000E+01-9.729691486E+01+
*       1.0909509608E+02               0
GRID*               3700               02.0000000000E+01-9.729691486E+01+
*       1.1209509608E+02               0
GRID*               3701               02.0000000000E+01-9.464958039E+01+
*       1.0723765476E+02               0
GRID*               3702               02.0000000000E+01-9.194461277E+01+
*       1.0840889442E+02               0
GRID*               3703               02.0000000000E+01-8.421921645E+01+
*       9.9887597663E+01               0
GRID*               3704               02.0000000000E+01-8.155327462E+01+
*       1.0096000635E+02               0
GRID*               3705               02.0000000000E+01-8.173773241E+01+
*       9.7972691620E+01               0
GRID*               3706               02.0000000000E+01-7.925375239E+01+
*       9.6159787786E+01               0
GRID*               3707               02.0000000000E+01-7.665827050E+01+
*       9.7252052592E+01               0
GRID*               3708               02.0000000000E+01-7.684023230E+01+
*       9.4366740072E+01               0
GRID*               3709               02.0000000000E+01-6.951369224E+01+
*       8.9151548020E+01               0
GRID*               3710               02.0000000000E+01-6.692225926E+01+
*       9.0264658637E+01               0
GRID*               3711               02.0000000000E+01-7.195156562E+01+
*       9.0885180721E+01               0
GRID*               3712               02.0000000000E+01-7.438707130E+01+
*       9.2612466743E+01               0
GRID*               3713               02.0000000000E+01-7.180924472E+01+
*       9.3731718856E+01               0
GRID*               3714               02.0000000000E+01-9.712686215E+01+
*       1.1491578663E+02               0
GRID*               3715               02.0000000000E+01-9.712686215E+01+
*       1.1791578663E+02               0
GRID*               3716               02.0000000000E+01-9.442377701E+01+
*       1.1301088271E+02               0
GRID*               3717               02.0000000000E+01-9.179547659E+01+
*       1.1411501426E+02               0
GRID*               3718               02.0000000000E+01-9.196552930E+01+
*       1.1129432371E+02               0
GRID*               3719               02.0000000000E+01-8.374622165E+01+
*       1.0616384761E+02               0
GRID*               3720               02.0000000000E+01-8.095205681E+01+
*       1.0712897179E+02               0
GRID*               3721               02.0000000000E+01-8.124059382E+01+
*       1.0384003658E+02               0
GRID*               3722               02.0000000000E+01-8.637654023E+01+
*       1.0804018975E+02               0
GRID*               3723               02.0000000000E+01-8.931631236E+01+
*       1.0951302597E+02               0
GRID*               3724               02.0000000000E+01-8.639745676E+01+
*       1.1092561904E+02               0
GRID*               3725               02.0000000000E+01-7.875910978E+01+
*       1.0192513053E+02               0
GRID*               3726               02.0000000000E+01-7.615405486E+01+
*       1.0294269315E+02               0
GRID*               3727               02.0000000000E+01-7.646673566E+01+
*       1.0006266293E+02               0
GRID*               3728               02.0000000000E+01-7.405321557E+01+
*       9.8269615214E+01               0
GRID*               3729               02.0000000000E+01-7.150388549E+01+
*       9.9392001077E+01               0
GRID*               3730               02.0000000000E+01-7.169542032E+01+
*       9.6581390742E+01               0
GRID*               3731               02.0000000000E+01-6.430733440E+01+
*       9.1442156709E+01               0
GRID*               3732               02.0000000000E+01-6.169921207E+01+
*       9.2547119710E+01               0
GRID*               3733               02.0000000000E+01-6.675881418E+01+
*       9.3181930905E+01               0
GRID*               3734               02.0000000000E+01-6.925991464E+01+
*       9.4854104719E+01               0
GRID*               3735               02.0000000000E+01-6.664498978E+01+
*       9.6031602791E+01               0
GRID*               3736               02.0000000000E+01-7.277192556E+01+
*       1.1544776983E+02               0
GRID*               3737               02.0000000000E+01-7.440951438E+01+
*       1.1759008871E+02               0
GRID*               3738               02.0000000000E+01-7.370116151E+01+
*       1.1313431872E+02               0
GRID*               3739               02.0000000000E+01-7.459876536E+01+
*       1.1067058612E+02               0
GRID*               3740               02.0000000000E+01-7.627148337E+01+
*       1.1271886651E+02               0
GRID*               3741               02.0000000000E+01-7.109920755E+01+
*       1.1339948943E+02               0
GRID*               3742               02.0000000000E+01-6.954425990E+01+
*       1.1126921087E+02               0
GRID*               3743               02.0000000000E+01-7.521955461E+01+
*       1.0830020891E+02               0
GRID*               3744               02.0000000000E+01-7.264923275E+01+
*       1.0871566111E+02               0
GRID*               3745               02.0000000000E+01-7.585822549E+01+
*       1.0557522233E+02               0
GRID*               3746               02.0000000000E+01-7.356585137E+01+
*       1.0371275473E+02               0
GRID*               3747               02.0000000000E+01-7.780775810E+01+
*       1.0753014734E+02               0
GRID*               3748               02.0000000000E+01-7.059778841E+01+
*       1.0938380547E+02               0
GRID*               3749               02.0000000000E+01-7.121857766E+01+
*       1.0701342826E+02               0
GRID*               3750               02.0000000000E+01-6.811360481E+01+
*       1.0956697801E+02               0
GRID*               3751               02.0000000000E+01-6.667265478E+01+
*       1.0696915495E+02               0
GRID*               3752               02.0000000000E+01-5.877097237E+01+
*       9.3904090836E+01               0
GRID*               3753               02.0000000000E+01-6.121564963E+01+
*       9.5716400103E+01               0
GRID*               3754               02.0000000000E+01-6.415740027E+01+
*       9.7279878561E+01               0
GRID*               3755               02.0000000000E+01-6.665850073E+01+
*       9.8952052375E+01               0
GRID*               3756               02.0000000000E+01-6.122916057E+01+
*       9.8636849686E+01               0
GRID*               3757               02.0000000000E+01-6.206236252E+01+
*       1.0140263152E+02               0
GRID*               3758               02.0000000000E+01-7.112917248E+01+
*       1.0477725926E+02               0
GRID*               3759               02.0000000000E+01-6.907772815E+01+
*       1.0544540361E+02               0
GRID*               3760               02.0000000000E+01-7.142500185E+01+
*       1.0214473008E+02               0
GRID*               3761               02.0000000000E+01-6.906720661E+01+
*       1.0045650561E+02               0
GRID*               3762               02.0000000000E+01-6.657961709E+01+
*       1.0170478138E+02               0
GRID*               3763               02.0000000000E+01-6.417454372E+01+
*       1.0322853271E+02               0
GRID*               3764               02.0000000000E+01-6.658324960E+01+
*       1.0473298595E+02               0
GRID*               3765               02.0000000000E+01-7.891218103E+01+
*       1.1244956654E+02               0
GRID*               3766               02.0000000000E+01-7.801457717E+01+
*       1.1491329913E+02               0
GRID*               3767               02.0000000000E+01-8.031338593E+01+
*       1.0985395837E+02               0
GRID*               3768               02.0000000000E+01-8.436658265E+01+
*       1.1203913612E+02               0
GRID*               3769               02.0000000000E+01-8.730635478E+01+
*       1.1351197233E+02               0
GRID*               3770               02.0000000000E+01-8.205647973E+01+
*       1.1204839099E+02               0
GRID*               3771               02.0000000000E+01-8.296537775E+01+
*       1.1463474428E+02               0
GRID*               3772               02.0000000000E+01-7.611624315E+01+
*       1.1969655348E+02               0
GRID*               3773               02.0000000000E+01-7.783485870E+01+
*       1.2187145992E+02               0
GRID*               3774               02.0000000000E+01-7.708060829E+01+
*       1.1728906388E+02               0
GRID*               3775               02.0000000000E+01-7.972130594E+01+
*       1.1701976390E+02               0
GRID*               3776               02.0000000000E+01-8.230289289E+01+
*       1.1666120088E+02               0
GRID*               3777               02.0000000000E+01-8.136892400E+01+
*       1.1903696563E+02               0
GRID*               3778               02.0000000000E+01-8.911064165E+01+
*       1.1494890959E+02               0
GRID*               3779               02.0000000000E+01-8.707976755E+01+
*       1.1606242666E+02               0
GRID*               3780               02.0000000000E+01-9.156888936E+01+
*       1.1666546859E+02               0
GRID*               3781               02.0000000000E+01-8.461299581E+01+
*       1.1665194600E+02               0
GRID*               3782               02.0000000000E+01-8.641728268E+01+
*       1.1808888326E+02               0
GRID*               3783               02.0000000000E+01-8.353339129E+01+
*       1.2816264584E+02               0
GRID*               3784               02.0000000000E+01-8.584494057E+01+
*       1.3064180539E+02               0
GRID*               3785               02.0000000000E+01-8.152161487E+01+
*       1.2615569418E+02               0
GRID*               3786               02.0000000000E+01-7.964140054E+01+
*       1.2392439854E+02               0
GRID*               3787               02.0000000000E+01-8.441219716E+01+
*       1.2550835756E+02               0
GRID*               3788               02.0000000000E+01-8.504822927E+01+
*       1.2292965375E+02               0
GRID*               3789               02.0000000000E+01-8.706000569E+01+
*       1.2493660542E+02               0
GRID*               3790               02.0000000000E+01-8.582327437E+01+
*       1.2051815211E+02               0
GRID*               3791               02.0000000000E+01-8.829004611E+01+
*       1.1992863276E+02               0
GRID*               3792               02.0000000000E+01-8.317546585E+01+
*       1.2108990425E+02               0
GRID*               3793               02.0000000000E+01-8.059387890E+01+
*       1.2144846727E+02               0
GRID*               3794               02.0000000000E+01-9.090867722E+01+
*       1.1925666848E+02               0
GRID*               3795               02.0000000000E+01-9.359351216E+01+
*       1.1842277315E+02               0
GRID*               3796               02.0000000000E+01-9.031466891E+01+
*       1.2168593732E+02               0
GRID*               3797               02.0000000000E+01-9.226194991E+01+
*       1.2344071500E+02               0
GRID*               3798               02.0000000000E+01-8.964331880E+01+
*       1.2411267929E+02               0
GRID*               3799               02.0000000000E+01-9.779448556E+01+
*       1.2744948344E+02               0
GRID*               3800               02.0000000000E+01-9.779448556E+01+
*       1.3044948344E+02               0
GRID*               3801               02.0000000000E+01-9.646665001E+01+
*       1.2050698652E+02               0
GRID*               3802               02.0000000000E+01-9.797040287E+01+
*       1.2223072454E+02               0
GRID*               3803               02.0000000000E+01-9.797040287E+01+
*       1.2523072454E+02               0
GRID*               3804               02.0000000000E+01-9.443705288E+01+
*       1.2273771106E+02               0
GRID*               3805               02.0000000000E+01-9.576488843E+01+
*       1.2668020798E+02               0
GRID*               3806               02.0000000000E+01-9.376570277E+01+
*       1.2516445302E+02               0
GRID*               3807               02.0000000000E+01-9.358978546E+01+
*       1.2738321193E+02               0
GRID*               3808               02.0000000000E+01-9.122654453E+01+
*       1.2839395431E+02               0
GRID*               3809               02.0000000000E+01-9.322573020E+01+
*       1.2990970927E+02               0
GRID*               3810               02.0000000000E+01-8.900728669E+01+
*       1.2669138310E+02               0
GRID*               3811               02.0000000000E+01-8.864323142E+01+
*       1.2921788044E+02               0
GRID*               3812               02.0000000000E+01-9.760378061E+01+
*       1.3304520073E+02               0
GRID*               3813               02.0000000000E+01-9.760378061E+01+
*       1.3604520073E+02               0
GRID*               3814               02.0000000000E+01-9.539826617E+01+
*       1.3149468417E+02               0
GRID*               3815               02.0000000000E+01-9.303502524E+01+
*       1.3250542655E+02               0
GRID*               3816               02.0000000000E+01-8.803015561E+01+
*       1.3465334487E+02               0
GRID*               3817               02.0000000000E+01-8.942689683E+01+
*       1.3758478665E+02               0
GRID*               3818               02.0000000000E+01-8.806419841E+01+
*       1.3234437660E+02               0
GRID*               3819               02.0000000000E+01-9.082844646E+01+
*       1.3322941992E+02               0
GRID*               3820               02.0000000000E+01-9.300098243E+01+
*       1.3481439482E+02               0
GRID*               3821               02.0000000000E+01-9.470629372E+01+
*       1.3667584337E+02               0
GRID*               3822               02.0000000000E+01-9.249971493E+01+
*       1.3739983674E+02               0
GRID*               3823               02.0000000000E+01-9.710251311E+01+
*       1.3863064265E+02               0
GRID*               3824               02.0000000000E+01-9.710251311E+01+
*       1.4163064265E+02               0
GRID*               3825               02.0000000000E+01-9.113220811E+01+
*       1.3944623520E+02               0
GRID*               3826               02.0000000000E+01-9.277908675E+01+
*       1.4194203357E+02               0
GRID*               3827               02.0000000000E+01-9.696969697E+01+
*       1.4700000000E+02               0
GRID*               3828               02.0000000000E+01-9.567657364E+01+
*       1.4431139092E+02               0
GRID*               3829               02.0000000000E+01-2.300880310E+01+
*       6.9934039823E+00               0
GRID*               3830               02.0000000000E+01-2.001282942E+01+
*       9.7055086910E+00               0
GRID*               3831               02.0000000000E+01-1.896403294E+01+
*       1.2175822576E+01               0
GRID*               3832               02.0000000000E+01-1.768492553E+01+
*       1.0284483032E+01               0
GRID*               3833               02.0000000000E+01-2.067816562E+01+
*       8.2611704100E+00               0
GRID*               3834               02.0000000000E+01-2.249574955E+01+
*       7.6888515971E+00               0
GRID*               3835               02.0000000000E+01-1.077436326E+01+
*       3.3392804069E+01               0
GRID*               3836               02.0000000000E+01-9.516691890E+00+
*       3.6067100454E+01               0
GRID*               3837               02.0000000000E+01-1.201019740E+01+
*       3.0876271510E+01               0
GRID*               3838               02.0000000000E+01-1.315894434E+01+
*       2.8299358316E+01               0
GRID*               3839               02.0000000000E+01-9.229755828E+00+
*       3.1082149796E+01               0
GRID*               3840               02.0000000000E+01-1.431369764E+01+
*       2.5834715114E+01               0
GRID*               3841               02.0000000000E+01-1.540717983E+01+
*       2.3443763383E+01               0
GRID*               3842               02.0000000000E+01-1.162034326E+01+
*       2.6100974035E+01               0
GRID*               3843               02.0000000000E+01-1.852264123E+01+
*       1.4264956210E+01               0
GRID*               3844               02.0000000000E+01-1.794155003E+01+
*       1.7062684679E+01               0
GRID*               3845               02.0000000000E+01-1.605503784E+01+
*       1.5552525387E+01               0
GRID*               3846               02.0000000000E+01-1.782053109E+01+
*       1.9006939497E+01               0
GRID*               3847               02.0000000000E+01-1.675660487E+01+
*       2.0800724895E+01               0
GRID*               3848               02.0000000000E+01-1.412452160E+01+
*       2.0993292345E+01               0
GRID*               3849               02.0000000000E+01-1.359192637E+00+
*       1.5045063012E+01               0
GRID*               3850               02.0000000000E+01-2.443781399E+00+
*       1.7581159362E+01               0
GRID*               3851               02.0000000000E+016.7705446831E-01+
*       1.7167151663E+01               0
GRID*               3852               02.0000000000E+01-2.657507205E+00+
*       1.2727766639E+01               0
GRID*               3853               02.0000000000E+01-5.630175894E+00+
*       1.2600203291E+01               0
GRID*               3854               02.0000000000E+014.6332866323E-01+
*       1.2313758940E+01               0
GRID*               3855               02.0000000000E+013.0418183966E+00+
*       1.2263688856E+01               0
GRID*               3856               02.0000000000E+01-7.796490975E+00+
*       2.8722962021E+01               0
GRID*               3857               02.0000000000E+01-6.560656838E+00+
*       3.1239494579E+01               0
GRID*               3858               02.0000000000E+01-6.315371258E+00+
*       2.6571252902E+01               0
GRID*               3859               02.0000000000E+01-3.823349692E+00+
*       2.6633244940E+01               0
GRID*               3860               02.0000000000E+01-5.011328965E+00+
*       2.4324191037E+01               0
GRID*               3861               02.0000000000E+01-8.984470248E+00+
*       2.6413908118E+01               0
GRID*               3862               02.0000000000E+01-1.013922354E+01+
*       2.3949264916E+01               0
GRID*               3863               02.0000000000E+01-1.106156796E+01+
*       2.1545559038E+01               0
GRID*               3864               02.0000000000E+01-8.425694946E+00+
*       2.1858493121E+01               0
GRID*               3865               02.0000000000E+01-1.471841672E+01+
*       1.0900283986E+01               0
GRID*               3866               02.0000000000E+01-1.378871110E+01+
*       1.3438326481E+01               0
GRID*               3867               02.0000000000E+01-1.187099877E+01+
*       1.1583813550E+01               0
GRID*               3868               02.0000000000E+01-1.241099300E+01+
*       1.8902520550E+01               0
GRID*               3869               02.0000000000E+01-1.320761989E+01+
*       1.6236054951E+01               0
GRID*               3870               02.0000000000E+01-1.014466625E+01+
*       1.6788321644E+01               0
GRID*               3871               02.0000000000E+01-6.175905164E+00+
*       2.2491965133E+01               0
GRID*               3872               02.0000000000E+01-7.098249579E+00+
*       2.0088259255E+01               0
GRID*               3873               02.0000000000E+01-3.683883599E+00+
*       2.2553957171E+01               0
GRID*               3874               02.0000000000E+01-1.463420847E+00+
*       2.2044715544E+01               0
GRID*               3875               02.0000000000E+01-2.627997046E+00+
*       2.0212489640E+01               0
GRID*               3876               02.0000000000E+01-4.664244151E+00+
*       1.8090400989E+01               0
GRID*               3877               02.0000000000E+01-8.860808214E+00+
*       1.1931595958E+01               0
GRID*               3878               02.0000000000E+01-7.710660826E+00+
*       1.4790463378E+01               0
GRID*               3879               02.0000000000E+01-6.914033933E+00+
*       1.7456928977E+01               0
GRID*               3880               02.0000000000E+012.2070783226E+01+
*       7.4441891477E+00               0
GRID*               3881               02.0000000000E+012.1470762356E+01+
*       7.6521172367E+00               0
GRID*               3882               02.0000000000E+012.3666868101E+01+
*       8.5345629335E+00               0
GRID*               3883               02.0000000000E+012.3506605917E+01+
*       9.3319794958E+00               0
GRID*               3884               02.0000000000E+012.4102918402E+01+
*       9.1017919171E+00               0
GRID*               3885               02.0000000000E+012.3115831086E+01+
*       8.1518596385E+00               0
GRID*               3886               02.0000000000E+012.2545400131E+01+
*       7.8502454323E+00               0
GRID*               3887               02.0000000000E+012.2500124661E+01+
*       8.4631363059E+00               0
GRID*               3888               02.0000000000E+011.7952604449E+01+
*       8.8857302670E+00               0
GRID*               3889               02.0000000000E+011.7038382770E+01+
*       9.0976439797E+00               0
GRID*               3890               02.0000000000E+012.0526317774E+01+
*       8.0018667042E+00               0
GRID*               3891               02.0000000000E+012.0985249124E+01+
*       8.5112715672E+00               0
GRID*               3892               02.0000000000E+011.9846239051E+01+
*       8.2119560179E+00               0
GRID*               3893               02.0000000000E+011.9061347709E+01+
*       8.4215161301E+00               0
GRID*               3894               02.0000000000E+011.8932061282E+01+
*       9.3252351716E+00               0
GRID*               3895               02.0000000000E+012.1946585320E+01+
*       9.1260231416E+00               0
GRID*               3896               02.0000000000E+012.1002140738E+01+
*       9.4757726090E+00               0
GRID*               3897               02.0000000000E+012.2953066576E+01+
*       9.9948663315E+00               0
GRID*               3898               02.0000000000E+012.2652437061E+01+
*       1.0900900463E+01               0
GRID*               3899               02.0000000000E+012.3642026702E+01+
*       1.0805242611E+01               0
GRID*               3900               02.0000000000E+012.2517016275E+01+
*       9.4276373478E+00               0
GRID*               3901               02.0000000000E+012.2976932255E+01+
*       1.2554284696E+01               0
GRID*               3902               02.0000000000E+012.3648510741E+01+
*       1.3433342781E+01               0
GRID*               3903               02.0000000000E+012.4012975673E+01+
*       1.2590334827E+01               0
GRID*               3904               02.0000000000E+012.1777827191E+01+
*       1.1082875763E+01               0
GRID*               3905               02.0000000000E+012.2466787318E+01+
*       1.1893252042E+01               0
GRID*               3906               02.0000000000E+012.0863854275E+01+
*       1.0633648662E+01               0
GRID*               3907               02.0000000000E+012.0678204532E+01+
*       1.1626000241E+01               0
GRID*               3908               02.0000000000E+011.9902518079E+01+
*       1.0018897088E+01               0
GRID*               3909               02.0000000000E+011.8793774819E+01+
*       1.0483111224E+01               0
GRID*               3910               02.0000000000E+012.4793455787E+01+
*       9.5805239911E+00               0
GRID*               3911               02.0000000000E+012.4643444884E+01+
*       1.0572574733E+01               0
GRID*               3912               02.0000000000E+012.4342815369E+01+
*       1.1478608865E+01               0
GRID*               3913               02.0000000000E+012.5494244453E+01+
*       1.0253890245E+01               0
GRID*               3914               02.0000000000E+012.6352829346E+01+
*       1.0843288611E+01               0
GRID*               3915               02.0000000000E+012.7247445904E+01+
*       1.1617736295E+01               0
GRID*               3916               02.0000000000E+012.8285328426E+01+
*       1.2228331641E+01               0
GRID*               3917               02.0000000000E+012.5014393854E+01+
*       1.2357666949E+01               0
GRID*               3918               02.0000000000E+012.6238850109E+01+
*       1.2020388671E+01               0
GRID*               3919               02.0000000000E+012.5909010413E+01+
*       1.3132114634E+01               0
GRID*               3920               02.0000000000E+013.8615341461E+01+
*       2.0923190146E+01               0
GRID*               3921               02.0000000000E+013.6298157875E+01+
*       1.8961938928E+01               0
GRID*               3922               02.0000000000E+013.5950939013E+01+
*       2.1721061164E+01               0
GRID*               3923               02.0000000000E+014.1039834616E+01+
*       2.2618496858E+01               0
GRID*               3924               02.0000000000E+013.4440074685E+01+
*       1.7521773110E+01               0
GRID*               3925               02.0000000000E+013.2790927255E+01+
*       1.7840715014E+01               0
GRID*               3926               02.0000000000E+013.0635252496E+01+
*       1.6835330015E+01               0
GRID*               3927               02.0000000000E+013.1478080669E+01+
*       1.8754424947E+01               0
GRID*               3928               02.0000000000E+013.3597246513E+01+
*       1.5602678177E+01               0
GRID*               3929               02.0000000000E+012.9443747118E+01+
*       1.3030684529E+01               0
GRID*               3930               02.0000000000E+013.0899078686E+01+
*       1.3583096440E+01               0
GRID*               3931               02.0000000000E+012.8291885359E+01+
*       1.3597189243E+01               0
GRID*               3932               02.0000000000E+012.6860056421E+01+
*       1.4194020492E+01               0
GRID*               3933               02.0000000000E+012.5635600167E+01+
*       1.4531298770E+01               0
GRID*               3934               02.0000000000E+012.8018475113E+01+
*       1.4996373380E+01               0
GRID*               3935               02.0000000000E+013.2147976201E+01+
*       1.4344135415E+01               0
GRID*               3936               02.0000000000E+013.0699201567E+01+
*       1.5160581107E+01               0
GRID*               3937               02.0000000000E+012.9386354981E+01+
*       1.6074291040E+01               0
GRID*               3938               02.0000000000E+012.7954526042E+01+
*       1.6671122288E+01               0
GRID*               3939               02.0000000000E+014.3458801545E+01+
*       2.4596106043E+01               0
GRID*               3940               02.0000000000E+014.6063120930E+01+
*       2.6566561966E+01               0
GRID*               3941               02.0000000000E+014.0687089529E+01+
*       2.5659921568E+01               0
GRID*               3942               02.0000000000E+014.8568830071E+01+
*       2.8636636102E+01               0
GRID*               3943               02.0000000000E+015.1440954090E+01+
*       3.0901577413E+01               0
GRID*               3944               02.0000000000E+014.5611765598E+01+
*       2.9707604889E+01               0
GRID*               3945               02.0000000000E+015.3658464510E+01+
*       3.2993442167E+01               0
GRID*               3946               02.0000000000E+015.0334985158E+01+
*       3.3869543778E+01               0
GRID*               3947               02.0000000000E+015.5997157228E+01+
*       3.2634582761E+01               0
GRID*               3948               02.0000000000E+015.9099286604E+01+
*       3.3828203344E+01               0
GRID*               3949               02.0000000000E+015.4891188297E+01+
*       3.5602549126E+01               0
GRID*               3950               02.0000000000E+016.1072094799E+01+
*       3.5076198097E+01               0
GRID*               3951               02.0000000000E+016.3537139296E+01+
*       3.6531237702E+01               0
GRID*               3952               02.0000000000E+015.9202689210E+01+
*       3.6491684473E+01               0
GRID*               3953               02.0000000000E+015.6863497309E+01+
*       3.7441158047E+01               0
GRID*               3954               02.0000000000E+015.4524804591E+01+
*       3.7800017453E+01               0
GRID*               3955               02.0000000000E+015.8836305504E+01+
*       3.8689152800E+01               0
GRID*               3956               02.0000000000E+016.5818120891E+01+
*       3.8086208934E+01               0
GRID*               3957               02.0000000000E+016.8235405889E+01+
*       3.9694801683E+01               0
GRID*               3958               02.0000000000E+016.3456479000E+01+
*       3.9294650457E+01               0
GRID*               3959               02.0000000000E+016.0985688157E+01+
*       4.0355244678E+01               0
GRID*               3960               02.0000000000E+015.8646496256E+01+
*       4.1304718253E+01               0
GRID*               3961               02.0000000000E+016.3266669751E+01+
*       4.1910215910E+01               0
GRID*               3962               02.0000000000E+017.0591026701E+01+
*       4.1362809505E+01               0
GRID*               3963               02.0000000000E+017.2998145362E+01+
*       4.3056843975E+01               0
GRID*               3964               02.0000000000E+016.8093081407E+01+
*       4.2517629511E+01               0
GRID*               3965               02.0000000000E+016.5568167560E+01+
*       4.3601561688E+01               0
GRID*               3966               02.0000000000E+016.3097376716E+01+
*       4.4662155909E+01               0
GRID*               3967               02.0000000000E+016.7923788372E+01+
*       4.5269569510E+01               0
GRID*               3968               02.0000000000E+017.5372047135E+01+
*       4.4789341543E+01               0
GRID*               3969               02.0000000000E+017.7772847499E+01+
*       4.6536600285E+01               0
GRID*               3970               02.0000000000E+017.2822603992E+01+
*       4.5918134901E+01               0
GRID*               3971               02.0000000000E+017.0261428350E+01+
*       4.6992317549E+01               0
GRID*               3972               02.0000000000E+016.7736514503E+01+
*       4.8076249726E+01               0
GRID*               3973               02.0000000000E+017.2635330124E+01+
*       4.8724815117E+01               0
GRID*               3974               02.0000000000E+018.0162994269E+01+
*       4.8320613963E+01               0
GRID*               3975               02.0000000000E+018.2568410468E+01+
*       5.0104681578E+01               0
GRID*               3976               02.0000000000E+017.7586652536E+01+
*       4.9434646147E+01               0
GRID*               3977               02.0000000000E+017.4984251353E+01+
*       5.0507752048E+01               0
GRID*               3978               02.0000000000E+017.2423075711E+01+
*       5.1581934696E+01               0
GRID*               3979               02.0000000000E+017.7374398123E+01+
*       5.2291765726E+01               0
GRID*               3980               02.0000000000E+018.4990328005E+01+
*       5.1924691000E+01               0
GRID*               3981               02.0000000000E+018.7416385283E+01+
*       5.3735214237E+01               0
GRID*               3982               02.0000000000E+018.2398716844E+01+
*       5.3038669247E+01               0
GRID*               3983               02.0000000000E+017.9764476097E+01+
*       5.4136050891E+01               0
GRID*               3984               02.0000000000E+017.7162074914E+01+
*       5.5209156792E+01               0
GRID*               3985               02.0000000000E+018.2186393635E+01+
*       5.5956060313E+01               0
GRID*               3986               02.0000000000E+018.9880864602E+01+
*       5.5571295575E+01               0
GRID*               3987               02.0000000000E+019.2346204010E+01+
*       5.7404602628E+01               0
GRID*               3988               02.0000000000E+018.7285113700E+01+
*       5.6694760006E+01               0
GRID*               3989               02.0000000000E+018.4643323048E+01+
*       5.7820001001E+01               0
GRID*               3990               02.0000000000E+018.2009082301E+01+
*       5.8917382645E+01               0
GRID*               3991               02.0000000000E+018.7107802366E+01+
*       5.9656082338E+01               0
GRID*               3992               02.0000000000E+019.7290559907E+01+
*       6.7069672580E+01               0
GRID*               3993               02.0000000000E+019.7290559907E+01+
*       7.0069672580E+01               0
GRID*               3994               02.0000000000E+019.4683075779E+01+
*       6.5184214162E+01               0
GRID*               3995               02.0000000000E+019.2131941754E+01+
*       6.3342241906E+01               0
GRID*               3996               02.0000000000E+019.2029985789E+01+
*       6.6297372905E+01               0
GRID*               3997               02.0000000000E+019.7392515872E+01+
*       6.4114541582E+01               0
GRID*               3998               02.0000000000E+019.7392515872E+01+
*       6.1114541582E+01               0
GRID*               3999               02.0000000000E+018.9614222391E+01+
*       6.1493120996E+01               0
GRID*               4000               02.0000000000E+018.6972431739E+01+
*       6.2618361991E+01               0
GRID*               4001               02.0000000000E+019.2267312381E+01+
*       6.0379962253E+01               0
GRID*               4002               02.0000000000E+019.4863923373E+01+
*       5.9253723537E+01               0
GRID*               4003               02.0000000000E+01-1.281933161E+00+
*       9.9912274536E+01               0
GRID*               4004               02.0000000000E+01-4.320482262E+00+
*       9.9882913966E+01               0
GRID*               4005               02.0000000000E+01-2.846024404E+00+
*       1.0252987346E+02               0
GRID*               4006               02.0000000000E+012.5799609176E-01+
*       9.7296352958E+01               0
GRID*               4007               02.0000000000E+011.8054302010E+00+
*       9.4684702542E+01               0
GRID*               4008               02.0000000000E+01-1.208956910E+00+
*       9.4653664628E+01               0
GRID*               4009               02.0000000000E+011.7324539497E+00+
*       9.9943312450E+01               0
GRID*               4010               02.0000000000E+013.2154115908E+00+
*       1.0258508015E+02               0
GRID*               4011               02.0000000000E+014.7553408435E+00+
*       9.9969158568E+01               0
GRID*               4012               02.0000000000E+013.3358565130E+00+
*       9.2073582185E+01               0
GRID*               4013               02.0000000000E+014.8674869378E+00+
*       8.9459969669E+01               0
GRID*               4014               02.0000000000E+011.8701076243E+00+
*       8.9428401696E+01               0
GRID*               4015               02.0000000000E+017.7628898212E+00+
*       9.9998894643E+01               0
GRID*               4016               02.0000000000E+016.2799321801E+00+
*       9.7357126945E+01               0
GRID*               4017               02.0000000000E+019.2524463544E+00+
*       1.0263361716E+02               0
GRID*               4018               02.0000000000E+011.0777037691E+01+
*       1.0002158553E+02               0
GRID*               4019               02.0000000000E+014.8028095145E+00+
*       9.4716270514E+01               0
GRID*               4020               02.0000000000E+017.8103584922E+00+
*       9.4746006588E+01               0
GRID*               4021               02.0000000000E+011.0748239831E+01+
*       1.0527090682E+02               0
GRID*               4022               02.0000000000E+011.2245597533E+01+
*       1.0790345380E+02               0
GRID*               4023               02.0000000000E+011.3763951926E+01+
*       1.0528885503E+02               0
GRID*               4024               02.0000000000E+01-4.395649465E+00+
*       1.0515606393E+02               0
GRID*               4025               02.0000000000E+01-7.458475315E+00+
*       1.0513021846E+02               0
GRID*               4026               02.0000000000E+01-5.969551274E+00+
*       1.0778576950E+02               0
GRID*               4027               02.0000000000E+01-1.357100363E+00+
*       1.0518542450E+02               0
GRID*               4028               02.0000000000E+011.3538921521E-01+
*       1.0783082556E+02               0
GRID*               4029               02.0000000000E+011.6850142755E+00+
*       1.0520463509E+02               0
GRID*               4030               02.0000000000E+017.7340919613E+00+
*       1.0524821593E+02               0
GRID*               4031               02.0000000000E+014.7079011694E+00+
*       1.0523048121E+02               0
GRID*               4032               02.0000000000E+016.2036946460E+00+
*       1.0786777087E+02               0
GRID*               4033               02.0000000000E+01-1.064377163E+01+
*       1.1569961201E+02               0
GRID*               4034               02.0000000000E+01-1.373026667E+01+
*       1.1569114859E+02               0
GRID*               4035               02.0000000000E+01-1.220063068E+01+
*       1.1834770807E+02               0
GRID*               4036               02.0000000000E+01-9.095330655E+00+
*       1.1305880876E+02               0
GRID*               4037               02.0000000000E+01-7.524815402E+00+
*       1.1041724451E+02               0
GRID*               4038               02.0000000000E+01-1.060289238E+01+
*       1.1040148828E+02               0
GRID*               4039               02.0000000000E+01-7.565694660E+00+
*       1.1571536824E+02               0
GRID*               4040               02.0000000000E+01-6.048226766E+00+
*       1.1836463789E+02               0
GRID*               4041               02.0000000000E+01-4.499785788E+00+
*       1.1572383465E+02               0
GRID*               4042               02.0000000000E+011.6754914622E+01+
*       1.1580037397E+02               0
GRID*               4043               02.0000000000E+011.5248032203E+01+
*       1.1316941101E+02               0
GRID*               4044               02.0000000000E+011.3735835747E+01+
*       1.1578749777E+02               0
GRID*               4045               02.0000000000E+011.8260031773E+01+
*       1.1843022294E+02               0
GRID*               4046               02.0000000000E+011.9772228229E+01+
*       1.1581213618E+02               0
GRID*               4047               02.0000000000E+011.3745131478E+01+
*       1.1053896840E+02               0
GRID*               4048               02.0000000000E+011.0729419383E+01+
*       1.1052102020E+02               0
GRID*               4049               02.0000000000E+011.6764210353E+01+
*       1.1055184461E+02               0
GRID*               4050               02.0000000000E+011.0710842108E+01+
*       1.1577780529E+02               0
GRID*               4051               02.0000000000E+011.2217724527E+01+
*       1.1840876826E+02               0
GRID*               4052               02.0000000000E+019.2017532884E+00+
*       1.1314381819E+02               0
GRID*               4053               02.0000000000E+017.6836420677E+00+
*       1.1576508868E+02               0
GRID*               4054               02.0000000000E+017.7022193429E+00+
*       1.1050830358E+02               0
GRID*               4055               02.0000000000E+014.6760285510E+00+
*       1.1049056886E+02               0
GRID*               4056               02.0000000000E+01-1.444069742E+00+
*       1.1573842072E+02               0
GRID*               4057               02.0000000000E+01-2.961537636E+00+
*       1.1308915107E+02               0
GRID*               4058               02.0000000000E+016.7598682164E-02+
*       1.1837959617E+02               0
GRID*               4059               02.0000000000E+011.6058468343E+00+
*       1.1574491259E+02               0
GRID*               4060               02.0000000000E+014.6460342533E+00+
*       1.1575859480E+02               0
GRID*               4061               02.0000000000E+016.1551230730E+00+
*       1.1839258191E+02               0
GRID*               4062               02.0000000000E+013.1343658290E+00+
*       1.1311741936E+02               0
GRID*               4063               02.0000000000E+01-4.461989553E+00+
*       1.1044308998E+02               0
GRID*               4064               02.0000000000E+01-1.406273507E+00+
*       1.1045767605E+02               0
GRID*               4065               02.0000000000E+011.6358411320E+00+
*       1.1047688664E+02               0
GRID*               4066               02.0000000000E+01-1.681057776E+01+
*       1.2627551562E+02               0
GRID*               4067               02.0000000000E+01-1.988900340E+01+
*       1.2627727268E+02               0
GRID*               4068               02.0000000000E+01-1.833373495E+01+
*       1.2891965754E+02               0
GRID*               4069               02.0000000000E+01-1.528259657E+01+
*       1.2363435052E+02               0
GRID*               4070               02.0000000000E+01-1.374323632E+01+
*       1.2098740747E+02               0
GRID*               4071               02.0000000000E+01-1.682648597E+01+
*       1.2098618771E+02               0
GRID*               4072               02.0000000000E+01-1.372732812E+01+
*       1.2627673539E+02               0
GRID*               4073               02.0000000000E+01-1.218776588E+01+
*       1.2891845873E+02               0
GRID*               4074               02.0000000000E+01-1.065978469E+01+
*       1.2627729363E+02               0
GRID*               4075               02.0000000000E+012.2782052133E+01+
*       1.2631989610E+02               0
GRID*               4076               02.0000000000E+012.1270925342E+01+
*       1.2369208251E+02               0
GRID*               4077               02.0000000000E+011.9763626905E+01+
*       1.2631064488E+02               0
GRID*               4078               02.0000000000E+012.4291584891E+01+
*       1.2894819687E+02               0
GRID*               4079               02.0000000000E+012.5798883328E+01+
*       1.2632963449E+02               0
GRID*               4080               02.0000000000E+011.9764922747E+01+
*       1.2106240822E+02               0
GRID*               4081               02.0000000000E+011.6747609140E+01+
*       1.2105064601E+02               0
GRID*               4082               02.0000000000E+012.2783347974E+01+
*       1.2107165944E+02               0
GRID*               4083               02.0000000000E+01-1.065674128E+01+
*       1.2099587088E+02               0
GRID*               4084               02.0000000000E+01-9.130529895E+00+
*       1.2363919193E+02               0
GRID*               4085               02.0000000000E+01-7.587924252E+00+
*       1.2099949253E+02               0
GRID*               4086               02.0000000000E+01-7.590967660E+00+
*       1.2628091527E+02               0
GRID*               4087               02.0000000000E+01-6.064599848E+00+
*       1.2891994069E+02               0
GRID*               4088               02.0000000000E+01-4.535345054E+00+
*       1.2628183899E+02               0
GRID*               4089               02.0000000000E+011.6737822945E+01+
*       1.2630626650E+02               0
GRID*               4090               02.0000000000E+011.5227205994E+01+
*       1.2367601635E+02               0
GRID*               4091               02.0000000000E+011.3712528825E+01+
*       1.2629945157E+02               0
GRID*               4092               02.0000000000E+011.8248949736E+01+
*       1.2893408009E+02               0
GRID*               4093               02.0000000000E+011.3722315020E+01+
*       1.2104383108E+02               0
GRID*               4094               02.0000000000E+011.0697321381E+01+
*       1.2103413860E+02               0
GRID*               4095               02.0000000000E+011.0680700348E+01+
*       1.2629730928E+02               0
GRID*               4096               02.0000000000E+011.2191317299E+01+
*       1.2892755942E+02               0
GRID*               4097               02.0000000000E+019.1682896666E+00+
*       1.2366430925E+02               0
GRID*               4098               02.0000000000E+017.6470781400E+00+
*       1.2629241710E+02               0
GRID*               4099               02.0000000000E+017.6636991729E+00+
*       1.2102924643E+02               0
GRID*               4100               02.0000000000E+014.6260913585E+00+
*       1.2102275256E+02               0
GRID*               4101               02.0000000000E+01-1.481069707E+00+
*       1.2628584716E+02               0
GRID*               4102               02.0000000000E+01-3.007437519E+00+
*       1.2364682174E+02               0
GRID*               4103               02.0000000000E+013.6883274735E-02+
*       1.2892189423E+02               0
GRID*               4104               02.0000000000E+011.5647908097E+00+
*       1.2628687698E+02               0
GRID*               4105               02.0000000000E+014.6087056247E+00+
*       1.2629117057E+02               0
GRID*               4106               02.0000000000E+016.1211163063E+00+
*       1.2892417059E+02               0
GRID*               4107               02.0000000000E+013.0907526434E+00+
*       1.2365512349E+02               0
GRID*               4108               02.0000000000E+01-4.522015381E+00+
*       1.2100795894E+02               0
GRID*               4109               02.0000000000E+01-1.467740033E+00+
*       1.2101196710E+02               0
GRID*               4110               02.0000000000E+011.5821765435E+00+
*       1.2101845897E+02               0
GRID*               4111               02.0000000000E+011.2517747597E+01+
*       7.6334119978E+01               0
GRID*               4112               02.0000000000E+011.4048282800E+01+
*       7.3642821326E+01               0
GRID*               4113               02.0000000000E+011.1027943555E+01+
*       7.3587084464E+01               0
GRID*               4114               02.0000000000E+011.0966132591E+01+
*       7.8974740855E+01               0
GRID*               4115               02.0000000000E+017.9725955772E+00+
*       7.8923449668E+01               0
GRID*               4116               02.0000000000E+019.4413198161E+00+
*       8.1619807408E+01               0
GRID*               4117               02.0000000000E+011.3986471836E+01+
*       7.9030477717E+01               0
GRID*               4118               02.0000000000E+016.3899512020E+00+
*       8.6852703222E+01               0
GRID*               4119               02.0000000000E+017.8557000907E+00+
*       8.9497883711E+01               0
GRID*               4120               02.0000000000E+017.9129735785E+00+
*       8.4229566743E+01               0
GRID*               4121               02.0000000000E+011.0906510592E+01+
*       8.4280857929E+01               0
GRID*               4122               02.0000000000E+014.9247604256E+00+
*       8.4191652700E+01               0
GRID*               4123               02.0000000000E+019.3219064249E+00+
*       9.2150272763E+01               0
GRID*               4124               02.0000000000E+011.0844370689E+01+
*       8.9543006316E+01               0
GRID*               4125               02.0000000000E+011.3765725788E+01+
*       1.0006331682E+02               0
GRID*               4126               02.0000000000E+011.2276169254E+01+
*       9.7428594309E+01               0
GRID*               4127               02.0000000000E+011.5257319178E+01+
*       1.0269194399E+02               0
GRID*               4128               02.0000000000E+011.6756450742E+01+
*       1.0009895277E+02               0
GRID*               4129               02.0000000000E+011.0799029091E+01+
*       9.4791129194E+01               0
GRID*               4130               02.0000000000E+011.3787717187E+01+
*       9.4832860483E+01               0
GRID*               4131               02.0000000000E+011.2357348934E+01+
*       8.6960946710E+01               0
GRID*               4132               02.0000000000E+011.3885695172E+01+
*       8.4351187375E+01               0
GRID*               4133               02.0000000000E+011.3823555268E+01+
*       8.9613335762E+01               0
GRID*               4134               02.0000000000E+011.5278411109E+01+
*       9.2260808300E+01               0
GRID*               4135               02.0000000000E+011.6791389354E+01+
*       8.9678748694E+01               0
GRID*               4136               02.0000000000E+011.5420453576E+01+
*       8.1767754455E+01               0
GRID*               4137               02.0000000000E+011.6972068582E+01+
*       7.9127133578E+01               0
GRID*               4138               02.0000000000E+011.9739609122E+01+
*       8.9773224539E+01               0
GRID*               4139               02.0000000000E+011.8284753281E+01+
*       8.7125752001E+01               0
GRID*               4140               02.0000000000E+012.1179141177E+01+
*       9.2404477381E+01               0
GRID*               4141               02.0000000000E+012.2672505105E+01+
*       8.9851480688E+01               0
GRID*               4142               02.0000000000E+011.6871291918E+01+
*       8.4447843236E+01               0
GRID*               4143               02.0000000000E+011.9819511686E+01+
*       8.4542319081E+01               0
GRID*               4144               02.0000000000E+011.9715962201E+01+
*       1.0015971789E+02               0
GRID*               4145               02.0000000000E+011.8224368810E+01+
*       9.7531090724E+01               0
GRID*               4146               02.0000000000E+012.1210502495E+01+
*       1.0277702602E+02               0
GRID*               4147               02.0000000000E+012.2678420564E+01+
*       1.0020916398E+02               0
GRID*               4148               02.0000000000E+012.5616577720E+01+
*       1.0026800828E+02               0
GRID*               4149               02.0000000000E+012.7114990846E+01+
*       1.0287777098E+02               0
GRID*               4150               02.0000000000E+012.8558607709E+01+
*       1.0031930714E+02               0
GRID*               4151               02.0000000000E+012.4122037426E+01+
*       9.7650700148E+01               0
GRID*               4152               02.0000000000E+011.6755551272E+01+
*       9.4898273415E+01               0
GRID*               4153               02.0000000000E+011.9715062732E+01+
*       9.4959038541E+01               0
GRID*               4154               02.0000000000E+012.2647958715E+01+
*       9.5037294690E+01               0
GRID*               4155               02.0000000000E+012.5586115872E+01+
*       9.5096138988E+01               0
GRID*               4156               02.0000000000E+012.8796712575E+01+
*       1.2635054374E+02               0
GRID*               4157               02.0000000000E+012.7287179817E+01+
*       1.2372224297E+02               0
GRID*               4158               02.0000000000E+013.0314392756E+01+
*       1.2897378579E+02               0
GRID*               4159               02.0000000000E+013.1802689245E+01+
*       1.2636639427E+02               0
GRID*               4160               02.0000000000E+014.0760370391E+01+
*       1.2643635214E+02               0
GRID*               4161               02.0000000000E+014.2286058330E+01+
*       1.2905423420E+02               0
GRID*               4162               02.0000000000E+014.3745285311E+01+
*       1.2645835582E+02               0
GRID*               4163               02.0000000000E+013.9240239545E+01+
*       1.2381471667E+02               0
GRID*               4164               02.0000000000E+013.7781012564E+01+
*       1.2641059505E+02               0
GRID*               4165               02.0000000000E+013.4790625572E+01+
*       1.2638929795E+02               0
GRID*               4166               02.0000000000E+013.3272945391E+01+
*       1.2376605590E+02               0
GRID*               4167               02.0000000000E+013.6310756418E+01+
*       1.2901093342E+02               0
GRID*               4168               02.0000000000E+011.6754676880E+01+
*       1.0532449097E+02               0
GRID*               4169               02.0000000000E+011.8247299466E+01+
*       1.0795658237E+02               0
GRID*               4170               02.0000000000E+011.9740666718E+01+
*       1.0535967134E+02               0
GRID*               4171               02.0000000000E+011.9750200191E+01+
*       1.1058702498E+02               0
GRID*               4172               02.0000000000E+012.1260725598E+01+
*       1.1320927342E+02               0
GRID*               4173               02.0000000000E+012.2743814711E+01+
*       1.1061401119E+02               0
GRID*               4174               02.0000000000E+012.8610778720E+01+
*       1.0550170158E+02               0
GRID*               4175               02.0000000000E+013.0123859140E+01+
*       1.0811311187E+02               0
GRID*               4176               02.0000000000E+013.1570101256E+01+
*       1.0554048012E+02               0
GRID*               4177               02.0000000000E+012.5668748731E+01+
*       1.0545040272E+02               0
GRID*               4178               02.0000000000E+012.2703125080E+01+
*       1.0540911743E+02               0
GRID*               4179               02.0000000000E+012.4198912954E+01+
*       1.0803304803E+02               0
GRID*               4180               02.0000000000E+013.1641021602E+01+
*       1.1072893363E+02               0
GRID*               4181               02.0000000000E+013.3160991054E+01+
*       1.1334202094E+02               0
GRID*               4182               02.0000000000E+013.4603151129E+01+
*       1.1076497772E+02               0
GRID*               4183               02.0000000000E+012.8681699066E+01+
*       1.1069015509E+02               0
GRID*               4184               02.0000000000E+012.5709438362E+01+
*       1.1065529648E+02               0
GRID*               4185               02.0000000000E+012.7226600823E+01+
*       1.1327111824E+02               0
GRID*               4186               02.0000000000E+013.7714849434E+01+
*       1.2119872696E+02               0
GRID*               4187               02.0000000000E+014.0694207260E+01+
*       1.2122448405E+02               0
GRID*               4188               02.0000000000E+013.6192977113E+01+
*       1.1857979187E+02               0
GRID*               4189               02.0000000000E+013.4739009398E+01+
*       1.2117002450E+02               0
GRID*               4190               02.0000000000E+013.4670128829E+01+
*       1.1596457723E+02               0
GRID*               4191               02.0000000000E+013.1707999302E+01+
*       1.1592853313E+02               0
GRID*               4192               02.0000000000E+013.7645968865E+01+
*       1.1599327969E+02               0
GRID*               4193               02.0000000000E+012.5770729281E+01+
*       1.2109927568E+02               0
GRID*               4194               02.0000000000E+012.4264726686E+01+
*       1.1846960139E+02               0
GRID*               4195               02.0000000000E+012.8768558528E+01+
*       1.2112018492E+02               0
GRID*               4196               02.0000000000E+013.1751073070E+01+
*       1.2114712081E+02               0
GRID*               4197               02.0000000000E+013.0234622535E+01+
*       1.1852415352E+02               0
GRID*               4198               02.0000000000E+012.2765842749E+01+
*       1.1583912239E+02               0
GRID*               4199               02.0000000000E+012.5753224056E+01+
*       1.1586673863E+02               0
GRID*               4200               02.0000000000E+012.8725484760E+01+
*       1.1590159724E+02               0
GRID*               4201               02.0000000000E+01-1.985405194E+01+
*       1.3155835526E+02               0
GRID*               4202               02.0000000000E+01-2.292177809E+01+
*       1.3156300189E+02               0
GRID*               4203               02.0000000000E+01-2.136366944E+01+
*       1.3419994256E+02               0
GRID*               4204               02.0000000000E+01-1.064725265E+01+
*       1.3155551861E+02               0
GRID*               4205               02.0000000000E+01-9.119781396E+00+
*       1.3419172950E+02               0
GRID*               4206               02.0000000000E+01-7.592751197E+00+
*       1.3155522786E+02               0
GRID*               4207               02.0000000000E+01-1.371479608E+01+
*       1.3155496037E+02               0
GRID*               4208               02.0000000000E+01-1.677562630E+01+
*       1.3155659821E+02               0
GRID*               4209               02.0000000000E+01-1.523511307E+01+
*       1.3419365809E+02               0
GRID*               4210               02.0000000000E+01-2.436848225E+01+
*       1.3947535242E+02               0
GRID*               4211               02.0000000000E+01-2.287217554E+01+
*       1.3683734198E+02               0
GRID*               4212               02.0000000000E+01-2.592770230E+01+
*       1.3684259963E+02               0
GRID*               4213               02.0000000000E+01-2.586482395E+01+
*       1.4211001291E+02               0
GRID*               4214               02.0000000000E+01-2.890744519E+01+
*       1.4211384469E+02               0
GRID*               4215               02.0000000000E+01-2.734826013E+01+
*       1.4474324754E+02               0
GRID*               4216               02.0000000000E+01-2.280929719E+01+
*       1.4210475526E+02               0
GRID*               4217               02.0000000000E+01-2.126231444E+01+
*       1.4473674219E+02               0
GRID*               4218               02.0000000000E+01-1.976597273E+01+
*       1.4210208170E+02               0
GRID*               4219               02.0000000000E+01-2.883180432E+01+
*       1.4737353966E+02               0
GRID*               4220               02.0000000000E+01-3.186210735E+01+
*       1.4737353966E+02               0
GRID*               4221               02.0000000000E+01-1.971555560E+01+
*       1.4736703431E+02               0
GRID*               4222               02.0000000000E+01-1.668525257E+01+
*       1.4736703431E+02               0
GRID*               4223               02.0000000000E+01-2.275888005E+01+
*       1.4736970788E+02               0
GRID*               4224               02.0000000000E+01-2.578918308E+01+
*       1.4736970788E+02               0
GRID*               4225               02.0000000000E+01-7.588315592E+00+
*       1.3682697379E+02               0
GRID*               4226               02.0000000000E+01-6.065846757E+00+
*       1.3946189633E+02               0
GRID*               4227               02.0000000000E+01-4.542811107E+00+
*       1.3682636129E+02               0
GRID*               4228               02.0000000000E+01-1.980444939E+01+
*       1.3683269535E+02               0
GRID*               4229               02.0000000000E+01-1.826045363E+01+
*       1.3946745577E+02               0
GRID*               4230               02.0000000000E+01-1.675194754E+01+
*       1.3683005635E+02               0
GRID*               4231               02.0000000000E+01-1.064281705E+01+
*       1.3682726455E+02               0
GRID*               4232               02.0000000000E+01-1.369111732E+01+
*       1.3682841851E+02               0
GRID*               4233               02.0000000000E+01-1.215965151E+01+
*       1.3946366280E+02               0
GRID*               4234               02.0000000000E+01-1.509876485E+00+
*       1.4736517529E+02               0
GRID*               4235               02.0000000000E+011.5204265456E+00+
*       1.4736517529E+02               0
GRID*               4236               02.0000000000E+01-3.026520079E+00+
*       1.4473088411E+02               0
GRID*               4237               02.0000000000E+01-4.546946625E+00+
*       1.4736570882E+02               0
GRID*               4238               02.0000000000E+01-4.541966246E+00+
*       1.4209635073E+02               0
GRID*               4239               02.0000000000E+01-7.587470731E+00+
*       1.4209696324E+02               0
GRID*               4240               02.0000000000E+01-1.504896106E+00+
*       1.4209581721E+02               0
GRID*               4241               02.0000000000E+01-1.364624611E+01+
*       1.4736630054E+02               0
GRID*               4242               02.0000000000E+01-1.517998353E+01+
*       1.4473333485E+02               0
GRID*               4243               02.0000000000E+01-1.061594308E+01+
*       1.4736630054E+02               0
GRID*               4244               02.0000000000E+01-7.577249655E+00+
*       1.4736570882E+02               0
GRID*               4245               02.0000000000E+01-9.102283647E+00+
*       1.4473200936E+02               0
GRID*               4246               02.0000000000E+01-1.671347088E+01+
*       1.4209944269E+02               0
GRID*               4247               02.0000000000E+01-1.367446443E+01+
*       1.4209870892E+02               0
GRID*               4248               02.0000000000E+01-1.062616416E+01+
*       1.4209755496E+02               0
GRID*               4249               02.0000000000E+014.0815069843E+01+
*       1.3165782989E+02               0
GRID*               4250               02.0000000000E+013.7818856246E+01+
*       1.3164017649E+02               0
GRID*               4251               02.0000000000E+013.9332782680E+01+
*       1.3426577587E+02               0
GRID*               4252               02.0000000000E+014.3799984764E+01+
*       1.3167983358E+02               0
GRID*               4253               02.0000000000E+014.5328688401E+01+
*       1.3429845903E+02               0
GRID*               4254               02.0000000000E+014.6799676887E+01+
*       1.3169486334E+02               0
GRID*               4255               02.0000000000E+014.6855031928E+01+
*       1.3692003735E+02               0
GRID*               4256               02.0000000000E+014.8388782508E+01+
*       1.3953750209E+02               0
GRID*               4257               02.0000000000E+014.9862131105E+01+
*       1.3693095353E+02               0
GRID*               4258               02.0000000000E+014.3855339804E+01+
*       1.3690500759E+02               0
GRID*               4259               02.0000000000E+013.7850699728E+01+
*       1.3687636485E+02               0
GRID*               4260               02.0000000000E+013.4836307955E+01+
*       1.3686631010E+02               0
GRID*               4261               02.0000000000E+013.6350438600E+01+
*       1.3949455248E+02               0
GRID*               4262               02.0000000000E+014.0846913325E+01+
*       1.3689401825E+02               0
GRID*               4263               02.0000000000E+014.2373256852E+01+
*       1.3951559657E+02               0
GRID*               4264               02.0000000000E+015.2995586089E+01+
*       1.4738935140E+02               0
GRID*               4265               02.0000000000E+015.1456835002E+01+
*       1.4477312645E+02               0
GRID*               4266               02.0000000000E+014.9976400429E+01+
*       1.4738377505E+02               0
GRID*               4267               02.0000000000E+015.6025889119E+01+
*       1.4738935140E+02               0
GRID*               4268               02.0000000000E+014.9916765514E+01+
*       1.4215798418E+02               0
GRID*               4269               02.0000000000E+014.6909666337E+01+
*       1.4214706801E+02               0
GRID*               4270               02.0000000000E+015.2935951173E+01+
*       1.4216356053E+02               0
GRID*               4271               02.0000000000E+013.1821913417E+01+
*       1.4736894654E+02               0
GRID*               4272               02.0000000000E+012.8791610387E+01+
*       1.4736894654E+02               0
GRID*               4273               02.0000000000E+013.3333830709E+01+
*       1.4474233205E+02               0
GRID*               4274               02.0000000000E+013.4846607372E+01+
*       1.4211563437E+02               0
GRID*               4275               02.0000000000E+013.1823270163E+01+
*       1.4211119541E+02               0
GRID*               4276               02.0000000000E+013.4845250626E+01+
*       1.4737338551E+02               0
GRID*               4277               02.0000000000E+013.7875553656E+01+
*       1.4737338551E+02               0
GRID*               4278               02.0000000000E+014.3889838564E+01+
*       1.4214195079E+02               0
GRID*               4279               02.0000000000E+014.5417821570E+01+
*       1.4476243288E+02               0
GRID*               4280               02.0000000000E+014.0881412085E+01+
*       1.4213096144E+02               0
GRID*               4281               02.0000000000E+013.7860999145E+01+
*       1.4212568912E+02               0
GRID*               4282               02.0000000000E+013.9377580857E+01+
*       1.4475204334E+02               0
GRID*               4283               02.0000000000E+014.6946097399E+01+
*       1.4738377505E+02               0
GRID*               4284               02.0000000000E+014.3926269625E+01+
*       1.4737865783E+02               0
GRID*               4285               02.0000000000E+014.0895966595E+01+
*       1.4737865783E+02               0
GRID*               4286               02.0000000000E+013.0314561035E+01+
*       1.3947922851E+02               0
GRID*               4287               02.0000000000E+012.8801784372E+01+
*       1.4210592619E+02               0
GRID*               4288               02.0000000000E+013.1824078501E+01+
*       1.3685586585E+02               0
GRID*               4289               02.0000000000E+013.3324339630E+01+
*       1.3423767823E+02               0
GRID*               4290               02.0000000000E+012.8802592710E+01+
*       1.3685059664E+02               0
GRID*               4291               02.0000000000E+012.7297193911E+01+
*       1.3421691032E+02               0
GRID*               4292               02.0000000000E+012.5787676445E+01+
*       1.3684027298E+02               0
GRID*               4293               02.0000000000E+013.4828469255E+01+
*       1.3161887940E+02               0
GRID*               4294               02.0000000000E+012.5795346866E+01+
*       1.3158226096E+02               0
GRID*               4295               02.0000000000E+012.2778515671E+01+
*       1.3157252256E+02               0
GRID*               4296               02.0000000000E+012.8810263131E+01+
*       1.3159258462E+02               0
GRID*               4297               02.0000000000E+013.1816239801E+01+
*       1.3160843515E+02               0
GRID*               4298               02.0000000000E+011.9753739559E+01+
*       1.3156854441E+02               0
GRID*               4299               02.0000000000E+012.1257501534E+01+
*       1.3420260850E+02               0
GRID*               4300               02.0000000000E+011.6727935599E+01+
*       1.3156416603E+02               0
GRID*               4301               02.0000000000E+012.7282779599E+01+
*       1.4473648889E+02               0
GRID*               4302               02.0000000000E+012.5763896485E+01+
*       1.4736754235E+02               0
GRID*               4303               02.0000000000E+012.2762478453E+01+
*       1.3683697369E+02               0
GRID*               4304               02.0000000000E+012.4267877252E+01+
*       1.3947066001E+02               0
GRID*               4305               02.0000000000E+011.9737702342E+01+
*       1.3683299554E+02               0
GRID*               4306               02.0000000000E+012.5774070471E+01+
*       1.4210452199E+02               0
GRID*               4307               02.0000000000E+012.2748872479E+01+
*       1.4210122271E+02               0
GRID*               4308               02.0000000000E+011.8214978220E+01+
*       1.3946525851E+02               0
GRID*               4309               02.0000000000E+011.6710001301E+01+
*       1.3683089332E+02               0
GRID*               4310               02.0000000000E+011.6692591929E+01+
*       1.4209797886E+02               0
GRID*               4311               02.0000000000E+011.3663350340E+01+
*       1.4209689429E+02               0
GRID*               4312               02.0000000000E+011.5168665090E+01+
*       1.4473171686E+02               0
GRID*               4313               02.0000000000E+011.9720292970E+01+
*       1.4210008108E+02               0
GRID*               4314               02.0000000000E+012.1226486188E+01+
*       1.4473394306E+02               0
GRID*               4315               02.0000000000E+011.3645469327E+01+
*       1.4736531615E+02               0
GRID*               4316               02.0000000000E+011.0615166296E+01+
*       1.4736531615E+02               0
GRID*               4317               02.0000000000E+012.2733593455E+01+
*       1.4736754235E+02               0
GRID*               4318               02.0000000000E+011.9705013945E+01+
*       1.4736640072E+02               0
GRID*               4319               02.0000000000E+011.6674710915E+01+
*       1.4736640072E+02               0
GRID*               4320               02.0000000000E+017.5837096952E+00+
*       1.4736517336E+02               0
GRID*               4321               02.0000000000E+019.1079669007E+00+
*       1.4473048951E+02               0
GRID*               4322               02.0000000000E+014.5534066649E+00+
*       1.4736517336E+02               0
GRID*               4323               02.0000000000E+013.0435301802E+00+
*       1.4473034865E+02               0
GRID*               4324               02.0000000000E+011.5202964092E+01+
*       1.3419683692E+02               0
GRID*               4325               02.0000000000E+011.3680239970E+01+
*       1.3682909989E+02               0
GRID*               4326               02.0000000000E+011.3698174268E+01+
*       1.3156237260E+02               0
GRID*               4327               02.0000000000E+011.0666345791E+01+
*       1.3156023031E+02               0
GRID*               4328               02.0000000000E+011.2155747991E+01+
*       1.3946254604E+02               0
GRID*               4329               02.0000000000E+011.0648710782E+01+
*       1.3682848964E+02               0
GRID*               4330               02.0000000000E+011.0631821152E+01+
*       1.4209628405E+02               0
GRID*               4331               02.0000000000E+017.6003645509E+00+
*       1.4209614126E+02               0
GRID*               4332               02.0000000000E+014.5658598334E+00+
*       1.4209587021E+02               0
GRID*               4333               02.0000000000E+016.0897140847E+00+
*       1.3946166475E+02               0
GRID*               4334               02.0000000000E+011.5328797140E+00+
*       1.4209587214E+02               0
GRID*               4335               02.0000000000E+011.7433547659E-02+
*       1.3946133876E+02               0
GRID*               4336               02.0000000000E+019.1386009168E+00+
*       1.3419415943E+02               0
GRID*               4337               02.0000000000E+017.6141089373E+00+
*       1.3682760559E+02               0
GRID*               4338               02.0000000000E+017.6317439470E+00+
*       1.3155934625E+02               0
GRID*               4339               02.0000000000E+014.5933714317E+00+
*       1.3155809972E+02               0
GRID*               4340               02.0000000000E+01-1.498057936E+00+
*       1.3682670096E+02               0
GRID*               4341               02.0000000000E+01-3.020526771E+00+
*       1.3419177842E+02               0
GRID*               4342               02.0000000000E+011.5397178834E+00+
*       1.3682675590E+02               0
GRID*               4343               02.0000000000E+014.5796042198E+00+
*       1.3682733454E+02               0
GRID*               4344               02.0000000000E+013.0641127360E+00+
*       1.3419269673E+02               0
GRID*               4345               02.0000000000E+01-4.537128591E+00+
*       1.3155615158E+02               0
GRID*               4346               02.0000000000E+01-1.492375421E+00+
*       1.3155649125E+02               0
GRID*               4347               02.0000000000E+011.5534850953E+00+
*       1.3155752107E+02               0
GRID*               4348               02.0000000000E+01-5.609546993E+01+
*       1.4743341950E+02               0
GRID*               4349               02.0000000000E+01-5.306516689E+01+
*       1.4743341950E+02               0
GRID*               4350               02.0000000000E+01-5.909203050E+01+
*       1.4744661571E+02               0
GRID*               4351               02.0000000000E+01-6.212233353E+01+
*       1.4744661571E+02               0
GRID*               4352               02.0000000000E+01-5.761174285E+01+
*       1.4488003521E+02               0
GRID*               4353               02.0000000000E+01-5.613780667E+01+
*       1.4232909865E+02               0
GRID*               4354               02.0000000000E+01-5.913436725E+01+
*       1.4234229486E+02               0
GRID*               4355               02.0000000000E+01-6.061018405E+01+
*       1.3980515203E+02               0
GRID*               4356               02.0000000000E+01-6.208412024E+01+
*       1.4235608859E+02               0
GRID*               4357               02.0000000000E+01-5.914097557E+01+
*       1.3729511731E+02               0
GRID*               4358               02.0000000000E+01-6.511881190E+01+
*       1.4744701174E+02               0
GRID*               4359               02.0000000000E+01-6.360478180E+01+
*       1.4489362745E+02               0
GRID*               4360               02.0000000000E+01-5.499487620E+01+
*       1.2968659148E+02               0
GRID*               4361               02.0000000000E+01-5.634322930E+01+
*       1.3226587026E+02               0
GRID*               4362               02.0000000000E+01-5.347059460E+01+
*       1.3211731386E+02               0
GRID*               4363               02.0000000000E+01-5.378201217E+01+
*       1.2718891943E+02               0
GRID*               4364               02.0000000000E+01-5.772023388E+01+
*       1.3474773448E+02               0
GRID*               4365               02.0000000000E+01-5.623968938E+01+
*       1.3724397547E+02               0
GRID*               4366               02.0000000000E+01-5.185622541E+01+
*       1.3460824831E+02               0
GRID*               4367               02.0000000000E+01-5.326858083E+01+
*       1.3720838045E+02               0
GRID*               4368               02.0000000000E+01-5.030585854E+01+
*       1.3712003611E+02               0
GRID*               4369               02.0000000000E+01-5.050787231E+01+
*       1.3202896952E+02               0
GRID*               4370               02.0000000000E+01-5.468932251E+01+
*       1.3975576328E+02               0
GRID*               4371               02.0000000000E+01-5.316669812E+01+
*       1.4229350363E+02               0
GRID*               4372               02.0000000000E+01-4.400051824E+01+
*       1.4739535491E+02               0
GRID*               4373               02.0000000000E+01-4.097021521E+01+
*       1.4739535491E+02               0
GRID*               4374               02.0000000000E+01-4.702459653E+01+
*       1.4741658630E+02               0
GRID*               4375               02.0000000000E+01-5.005489956E+01+
*       1.4741658630E+02               0
GRID*               4376               02.0000000000E+01-4.557056932E+01+
*       1.4481194122E+02               0
GRID*               4377               02.0000000000E+01-4.412828607E+01+
*       1.4220672273E+02               0
GRID*               4378               02.0000000000E+01-4.715236436E+01+
*       1.4222795413E+02               0
GRID*               4379               02.0000000000E+01-5.160491494E+01+
*       1.4485000581E+02               0
GRID*               4380               02.0000000000E+01-5.015643078E+01+
*       1.4227667043E+02               0
GRID*               4381               02.0000000000E+01-4.871414753E+01+
*       1.3967145195E+02               0
GRID*               4382               02.0000000000E+01-4.730179211E+01+
*       1.3707131981E+02               0
GRID*               4383               02.0000000000E+01-5.248339379E+01+
*       1.2448635623E+02               0
GRID*               4384               02.0000000000E+01-5.082362312E+01+
*       1.2683547187E+02               0
GRID*               4385               02.0000000000E+01-5.158954012E+01+
*       1.2141382429E+02               0
GRID*               4386               02.0000000000E+01-4.807499115E+01+
*       1.2131535618E+02               0
GRID*               4387               02.0000000000E+01-5.013952652E+01+
*       1.1859627180E+02               0
GRID*               4388               02.0000000000E+01-4.586641558E+01+
*       1.3444856154E+02               0
GRID*               4389               02.0000000000E+01-4.427470458E+01+
*       1.3699997738E+02               0
GRID*               4390               02.0000000000E+01-4.749642616E+01+
*       1.3188525725E+02               0
GRID*               4391               02.0000000000E+01-4.911079535E+01+
*       1.2939432280E+02               0
GRID*               4392               02.0000000000E+01-4.446933862E+01+
*       1.3181391483E+02               0
GRID*               4393               02.0000000000E+01-4.139406561E+01+
*       1.3172267399E+02               0
GRID*               4394               02.0000000000E+01-4.302407619E+01+
*       1.2915936970E+02               0
GRID*               4395               02.0000000000E+01-4.493207375E+01+
*       1.2117381953E+02               0
GRID*               4396               02.0000000000E+01-4.174852685E+01+
*       1.2112241308E+02               0
GRID*               4397               02.0000000000E+01-4.344143066E+01+
*       1.1844639725E+02               0
GRID*               4398               02.0000000000E+01-4.638208734E+01+
*       1.2399137201E+02               0
GRID*               4399               02.0000000000E+01-4.781217697E+01+
*       1.2669175960E+02               0
GRID*               4400               02.0000000000E+01-4.466925957E+01+
*       1.2655022295E+02               0
GRID*               4401               02.0000000000E+01-4.159398656E+01+
*       1.2645898211E+02               0
GRID*               4402               02.0000000000E+01-4.011899294E+01+
*       1.2378138500E+02               0
GRID*               4403               02.0000000000E+01-3.847380956E+01+
*       1.2639053174E+02               0
GRID*               4404               02.0000000000E+01-3.862834985E+01+
*       1.2105396272E+02               0
GRID*               4405               02.0000000000E+01-3.549865741E+01+
*       1.2102636920E+02               0
GRID*               4406               02.0000000000E+01-3.712819132E+01+
*       1.1836739728E+02               0
GRID*               4407               02.0000000000E+01-3.793407295E+01+
*       1.4738255179E+02               0
GRID*               4408               02.0000000000E+01-3.951034877E+01+
*       1.4477790670E+02               0
GRID*               4409               02.0000000000E+01-3.490376992E+01+
*       1.4738255179E+02               0
GRID*               4410               02.0000000000E+01-3.343254394E+01+
*       1.4475609145E+02               0
GRID*               4411               02.0000000000E+01-4.109287467E+01+
*       1.4217457383E+02               0
GRID*               4412               02.0000000000E+01-4.267466971E+01+
*       1.3959058675E+02               0
GRID*               4413               02.0000000000E+01-3.196448287E+01+
*       1.4212769764E+02               0
GRID*               4414               02.0000000000E+01-3.500614543E+01+
*       1.4213670977E+02               0
GRID*               4415               02.0000000000E+01-3.048104668E+01+
*       1.3949446301E+02               0
GRID*               4416               02.0000000000E+01-3.805673241E+01+
*       1.4216177071E+02               0
GRID*               4417               02.0000000000E+01-3.658867134E+01+
*       1.3953337690E+02               0
GRID*               4418               02.0000000000E+01-2.900119138E+01+
*       1.3685638313E+02               0
GRID*               4419               02.0000000000E+01-2.750488467E+01+
*       1.3421837269E+02               0
GRID*               4420               02.0000000000E+01-4.123929318E+01+
*       1.3696782848E+02               0
GRID*               4421               02.0000000000E+01-3.817937389E+01+
*       1.3692370952E+02               0
GRID*               4422               02.0000000000E+01-3.977940875E+01+
*       1.3433310016E+02               0
GRID*               4423               02.0000000000E+01-3.205822905E+01+
*       1.3687023608E+02               0
GRID*               4424               02.0000000000E+01-3.512878690E+01+
*       1.3689864858E+02               0
GRID*               4425               02.0000000000E+01-3.364893160E+01+
*       1.3426056870E+02               0
GRID*               4426               02.0000000000E+01-3.388781473E+01+
*       1.2368485784E+02               0
GRID*               4427               02.0000000000E+01-3.538350210E+01+
*       1.2634877140E+02               0
GRID*               4428               02.0000000000E+01-3.227250089E+01+
*       1.2632069461E+02               0
GRID*               4429               02.0000000000E+01-3.238765621E+01+
*       1.2099829241E+02               0
GRID*               4430               02.0000000000E+01-2.926374636E+01+
*       1.2098765250E+02               0
GRID*               4431               02.0000000000E+01-3.087458904E+01+
*       1.1832916386E+02               0
GRID*               4432               02.0000000000E+01-3.833414632E+01+
*       1.3167855503E+02               0
GRID*               4433               02.0000000000E+01-3.685849572E+01+
*       1.2902636851E+02               0
GRID*               4434               02.0000000000E+01-3.524383886E+01+
*       1.3163679468E+02               0
GRID*               4435               02.0000000000E+01-3.217328100E+01+
*       1.3160838218E+02               0
GRID*               4436               02.0000000000E+01-2.908348773E+01+
*       1.3158649146E+02               0
GRID*               4437               02.0000000000E+01-3.067839499E+01+
*       1.2896271745E+02               0
GRID*               4438               02.0000000000E+01-2.600999865E+01+
*       1.3157270796E+02               0
GRID*               4439               02.0000000000E+01-2.450038115E+01+
*       1.2893112066E+02               0
GRID*               4440               02.0000000000E+01-2.918270762E+01+
*       1.2629880389E+02               0
GRID*               4441               02.0000000000E+01-2.767172962E+01+
*       1.2364483627E+02               0
GRID*               4442               02.0000000000E+01-2.607762371E+01+
*       1.2628685911E+02               0
GRID*               4443               02.0000000000E+01-2.615866245E+01+
*       1.2097570773E+02               0
GRID*               4444               02.0000000000E+01-2.303697553E+01+
*       1.2097714121E+02               0
GRID*               4445               02.0000000000E+01-2.462899227E+01+
*       1.1831995745E+02               0
GRID*               4446               02.0000000000E+01-2.298940315E+01+
*       1.2627715304E+02               0
GRID*               4447               02.0000000000E+01-2.146624596E+01+
*       1.2363301113E+02               0
GRID*               4448               02.0000000000E+01-1.993657578E+01+
*       1.2097726085E+02               0
GRID*               4449               02.0000000000E+01-1.839721554E+01+
*       1.1833031779E+02               0
GRID*               4450               02.0000000000E+016.5283048983E+00+
*       6.5515339876E+01               0
GRID*               4451               02.0000000000E+018.0050766214E+00+
*       6.2803394161E+01               0
GRID*               4452               02.0000000000E+015.0112864037E+00+
*       6.2838305176E+01               0
GRID*               4453               02.0000000000E+019.5432168162E+00+
*       7.0895778352E+01               0
GRID*               4454               02.0000000000E+018.0126816138E+00+
*       7.3587077004E+01               0
GRID*               4455               02.0000000000E+018.0250249956E+00+
*       6.8188099877E+01               0
GRID*               4456               02.0000000000E+015.0312347779E+00+
*       6.8223010892E+01               0
GRID*               4457               02.0000000000E+011.1040286937E+01+
*       6.8188107337E+01               0
GRID*               4458               02.0000000000E+015.3906792079E-01+
*       7.6238501192E+01               0
GRID*               4459               02.0000000000E+012.0347344164E+00+
*       7.3581947237E+01               0
GRID*               4460               02.0000000000E+01-9.383810671E-01+
*       7.3582436973E+01               0
GRID*               4461               02.0000000000E+01-9.751498953E-01+
*       7.8879053448E+01               0
GRID*               4462               02.0000000000E+011.9979655882E+00+
*       7.8878563713E+01               0
GRID*               4463               02.0000000000E+013.4657652871E+00+
*       8.1543816095E+01               0
GRID*               4464               02.0000000000E+011.9427429106E+00+
*       8.4166952574E+01               0
GRID*               4465               02.0000000000E+014.9799831032E+00+
*       7.8903263839E+01               0
GRID*               4466               02.0000000000E+013.5426201519E+00+
*       7.0910826956E+01               0
GRID*               4467               02.0000000000E+012.0459000545E+00+
*       6.8238066954E+01               0
GRID*               4468               02.0000000000E+015.0200691398E+00+
*       7.3566891175E+01               0
GRID*               4469               02.0000000000E+016.5047958783E+00+
*       7.6258197286E+01               0
GRID*               4470               02.0000000000E+014.1783861291E-01+
*       8.6782368621E+01               0
GRID*               4471               02.0000000000E+01-1.113791812E+00+
*       8.9395981137E+01               0
GRID*               4472               02.0000000000E+01-1.041156526E+00+
*       8.4134532015E+01               0
GRID*               4473               02.0000000000E+01-2.482133551E+00+
*       8.1503726444E+01               0
GRID*               4474               02.0000000000E+01-3.941031219E+00+
*       7.8863663924E+01               0
GRID*               4475               02.0000000000E+01-4.007037849E+00+
*       8.4119142491E+01               0
GRID*               4476               02.0000000000E+01-2.660263698E+00+
*       9.1996163875E+01               0
GRID*               4477               02.0000000000E+01-4.207697807E+00+
*       9.4607814291E+01               0
GRID*               4478               02.0000000000E+01-4.112532709E+00+
*       8.9350130800E+01               0
GRID*               4479               02.0000000000E+01-5.537321922E+00+
*       8.6713371492E+01               0
GRID*               4480               02.0000000000E+01-6.978298947E+00+
*       8.4082565921E+01               0
GRID*               4481               02.0000000000E+01-7.083793807E+00+
*       8.9313554230E+01               0
GRID*               4482               02.0000000000E+01-5.783283254E+00+
*       9.7205441772E+01               0
GRID*               4483               02.0000000000E+01-7.347374497E+00+
*       9.9823040694E+01               0
GRID*               4484               02.0000000000E+01-7.234590042E+00+
*       9.4547941019E+01               0
GRID*               4485               02.0000000000E+01-8.654521986E+00+
*       9.1884150743E+01               0
GRID*               4486               02.0000000000E+01-1.007931120E+01+
*       8.9247391436E+01               0
GRID*               4487               02.0000000000E+01-1.023010743E+01+
*       9.4481778224E+01               0
GRID*               4488               02.0000000000E+01-8.948685013E+00+
*       1.0243776754E+02               0
GRID*               4489               02.0000000000E+01-1.052258682E+01+
*       1.0506747311E+02               0
GRID*               4490               02.0000000000E+01-1.041148600E+01+
*       9.9760295346E+01               0
GRID*               4491               02.0000000000E+01-1.185810299E+01+
*       9.7054836099E+01               0
GRID*               4492               02.0000000000E+01-1.327803493E+01+
*       9.4391045823E+01               0
GRID*               4493               02.0000000000E+01-1.345941350E+01+
*       9.9669562945E+01               0
GRID*               4494               02.0000000000E+01-1.212835081E+01+
*       1.0771090994E+02               0
GRID*               4495               02.0000000000E+01-1.369886606E+01+
*       1.1035247419E+02               0
GRID*               4496               02.0000000000E+01-1.361856051E+01+
*       1.0501845902E+02               0
GRID*               4497               02.0000000000E+01-1.512528704E+01+
*       1.0229487359E+02               0
GRID*               4498               02.0000000000E+01-1.657190403E+01+
*       9.9589414339E+01               0
GRID*               4499               02.0000000000E+01-1.673105103E+01+
*       1.0493831042E+02               0
GRID*               4500               02.0000000000E+01-1.684081978E+01+
*       1.1566220502E+02               0
GRID*               4501               02.0000000000E+01-1.995090960E+01+
*       1.1565327816E+02               0
GRID*               4502               02.0000000000E+01-1.528396074E+01+
*       1.1301410896E+02               0
GRID*               4503               02.0000000000E+01-1.680941917E+01+
*       1.1032353062E+02               0
GRID*               4504               02.0000000000E+01-2.308931274E+01+
*       1.1564258572E+02               0
GRID*               4505               02.0000000000E+01-2.621099966E+01+
*       1.1564115224E+02               0
GRID*               4506               02.0000000000E+01-1.836932657E+01+
*       1.0762212477E+02               0
GRID*               4507               02.0000000000E+01-1.995442125E+01+
*       1.1028375953E+02               0
GRID*               4508               02.0000000000E+01-1.987605311E+01+
*       1.0489853933E+02               0
GRID*               4509               02.0000000000E+01-2.153291699E+01+
*       1.1297447295E+02               0
GRID*               4510               02.0000000000E+01-2.309282439E+01+
*       1.1027306710E+02               0
GRID*               4511               02.0000000000E+01-8.179578088E+00+
*       3.8671251789E+01               0
GRID*               4512               02.0000000000E+01-6.656807889E+00+
*       3.6202833690E+01               0
GRID*               4513               02.0000000000E+01-9.680201723E+00+
*       4.1258569044E+01               0
GRID*               4514               02.0000000000E+01-1.128272012E+01+
*       4.3843497024E+01               0
GRID*               4515               02.0000000000E+01-6.820317722E+00+
*       4.1394302279E+01               0
GRID*               4516               02.0000000000E+01-5.401032782E+00+
*       4.4045055283E+01               0
GRID*               4517               02.0000000000E+01-3.900409146E+00+
*       4.1457738029E+01               0
GRID*               4518               02.0000000000E+01-3.959235053E+00+
*       4.6771430014E+01               0
GRID*               4519               02.0000000000E+01-2.486463340E+00+
*       4.9443030522E+01               0
GRID*               4520               02.0000000000E+01-1.008352493E+00+
*       4.6780091539E+01               0
GRID*               4521               02.0000000000E+01-6.879143629E+00+
*       4.6707994265E+01               0
GRID*               4522               02.0000000000E+01-1.283157714E+01+
*       4.6524742300E+01               0
GRID*               4523               02.0000000000E+01-1.449469863E+01+
*       4.9237091723E+01               0
GRID*               4524               02.0000000000E+01-9.869798374E+00+
*       4.6662864810E+01               0
GRID*               4525               02.0000000000E+01-8.428000646E+00+
*       4.9389239541E+01               0
GRID*               4526               02.0000000000E+01-1.606700008E+01+
*       5.2025218597E+01               0
GRID*               4527               02.0000000000E+01-1.795593649E+01+
*       5.4973579460E+01               0
GRID*               4528               02.0000000000E+01-1.299095684E+01+
*       5.2132236960E+01               0
GRID*               4529               02.0000000000E+01-1.149657683E+01+
*       5.4906572231E+01               0
GRID*               4530               02.0000000000E+01-9.924275378E+00+
*       5.2118445357E+01               0
GRID*               4531               02.0000000000E+01-9.993885492E-01+
*       5.2152426238E+01               0
GRID*               4532               02.0000000000E+015.0091618761E-01+
*       5.4822606831E+01               0
GRID*               4533               02.0000000000E+011.9647239564E+00+
*       5.2121872639E+01               0
GRID*               4534               02.0000000000E+01-3.950271109E+00+
*       5.2143764713E+01               0
GRID*               4535               02.0000000000E+01-6.933620633E+00+
*       5.2163574812E+01               0
GRID*               4536               02.0000000000E+01-5.446545842E+00+
*       5.4872970529E+01               0
GRID*               4537               02.0000000000E+01-4.493299023E+01+
*       1.1037539243E+02               0
GRID*               4538               02.0000000000E+01-4.189790742E+01+
*       1.1039009307E+02               0
GRID*               4539               02.0000000000E+01-4.339578106E+01+
*       1.0772280869E+02               0
GRID*               4540               02.0000000000E+01-4.659220095E+01+
*       1.1298763262E+02               0
GRID*               4541               02.0000000000E+01-4.818713143E+01+
*       1.1571519607E+02               0
GRID*               4542               02.0000000000E+01-4.503004708E+01+
*       1.1577024025E+02               0
GRID*               4543               02.0000000000E+01-2.935191214E+01+
*       1.1564420640E+02               0
GRID*               4544               02.0000000000E+01-3.247582199E+01+
*       1.1565484631E+02               0
GRID*               4545               02.0000000000E+01-2.781223261E+01+
*       1.1296683468E+02               0
GRID*               4546               02.0000000000E+01-2.627593705E+01+
*       1.1025641789E+02               0
GRID*               4547               02.0000000000E+01-2.469744131E+01+
*       1.0756570448E+02               0
GRID*               4548               02.0000000000E+01-2.941684953E+01+
*       1.1025947206E+02               0
GRID*               4549               02.0000000000E+01-3.878024823E+01+
*       1.1037826903E+02               0
GRID*               4550               02.0000000000E+01-3.569931116E+01+
*       1.1032615868E+02               0
GRID*               4551               02.0000000000E+01-3.727976118E+01+
*       1.0768539898E+02               0
GRID*               4552               02.0000000000E+01-4.031745740E+01+
*       1.1303085277E+02               0
GRID*               4553               02.0000000000E+01-4.184650018E+01+
*       1.1571883381E+02               0
GRID*               4554               02.0000000000E+01-3.872884098E+01+
*       1.1570700977E+02               0
GRID*               4555               02.0000000000E+01-3.257598460E+01+
*       1.1030158874E+02               0
GRID*               4556               02.0000000000E+01-3.103968904E+01+
*       1.0759117195E+02               0
GRID*               4557               02.0000000000E+01-3.407647165E+01+
*       1.1299445879E+02               0
GRID*               4558               02.0000000000E+01-3.559914855E+01+
*       1.1567941624E+02               0
GRID*               4559               02.0000000000E+01-4.186443623E+01+
*       1.0518686783E+02               0
GRID*               4560               02.0000000000E+01-3.890498435E+01+
*       1.0509884332E+02               0
GRID*               4561               02.0000000000E+01-4.040872233E+01+
*       1.0254820183E+02               0
GRID*               4562               02.0000000000E+01-3.582404728E+01+
*       1.0504673298E+02               0
GRID*               4563               02.0000000000E+01-3.270337271E+01+
*       1.0485780379E+02               0
GRID*               4564               02.0000000000E+01-3.432859588E+01+
*       1.0227124813E+02               0
GRID*               4565               02.0000000000E+01-2.308767458E+01+
*       1.0478489977E+02               0
GRID*               4566               02.0000000000E+01-2.627078723E+01+
*       1.0476825057E+02               0
GRID*               4567               02.0000000000E+01-2.144939904E+01+
*       1.0210108542E+02               0
GRID*               4568               02.0000000000E+01-2.954423764E+01+
*       1.0481568711E+02               0
GRID*               4569               02.0000000000E+01-2.793447091E+01+
*       1.0203488241E+02               0
GRID*               4570               02.0000000000E+01-3.904014255E+01+
*       1.0008459694E+02               0
GRID*               4571               02.0000000000E+01-3.614569058E+01+
*       9.9725318608E+01               0
GRID*               4572               02.0000000000E+01-3.773656269E+01+
*       9.7349738227E+01               0
GRID*               4573               02.0000000000E+01-3.302501602E+01+
*       9.9536389425E+01               0
GRID*               4574               02.0000000000E+01-2.962956774E+01+
*       9.8908430829E+01               0
GRID*               4575               02.0000000000E+01-3.144666244E+01+
*       9.6362501305E+01               0
GRID*               4576               02.0000000000E+01-1.967964196E+01+
*       9.9396118917E+01               0
GRID*               4577               02.0000000000E+01-2.289126343E+01+
*       9.9282479357E+01               0
GRID*               4578               02.0000000000E+01-1.801376842E+01+
*       9.6770808275E+01               0
GRID*               4579               02.0000000000E+01-2.635611734E+01+
*       9.8860994286E+01               0
GRID*               4580               02.0000000000E+01-2.458636026E+01+
*       9.6156027781E+01               0
GRID*               4581               02.0000000000E+01-1.625954394E+01+
*       9.4248003464E+01               0
GRID*               4582               02.0000000000E+01-1.463154839E+01+
*       9.1674945589E+01               0
GRID*               4583               02.0000000000E+01-3.670832261E+01+
*       9.4780040422E+01               0
GRID*               4584               02.0000000000E+01-1.936728188E+01+
*       9.4054708041E+01               0
GRID*               4585               02.0000000000E+01-3.386332676E+01+
*       9.4195651872E+01               0
GRID*               4586               02.0000000000E+01-3.572953865E+01+
*       9.1985232393E+01               0
GRID*               4587               02.0000000000E+01-2.227604917E+01+
*       9.3788071737E+01               0
GRID*               4588               02.0000000000E+01-2.052182470E+01+
*       9.1265266925E+01               0
GRID*               4589               02.0000000000E+01-3.046787848E+01+
*       9.3567693276E+01               0
GRID*               4590               02.0000000000E+01-2.811729943E+01+
*       9.2872299848E+01               0
GRID*               4591               02.0000000000E+01-3.053396374E+01+
*       9.0705450414E+01               0
GRID*               4592               02.0000000000E+01-2.574090308E+01+
*       9.3366586665E+01               0
GRID*               4593               02.0000000000E+01-2.580698834E+01+
*       9.0504343804E+01               0
GRID*               4594               02.0000000000E+011.9988997909E+00+
*       5.7497787285E+01               0
GRID*               4595               02.0000000000E+013.5104145077E+00+
*       6.0164940400E+01               0
GRID*               4596               02.0000000000E+014.9765434100E+00+
*       5.7459206346E+01               0
GRID*               4597               02.0000000000E+01-9.652127147E-01+
*       5.7528340884E+01               0
GRID*               4598               02.0000000000E+01-1.939621825E+01+
*       5.7829503422E+01               0
GRID*               4599               02.0000000000E+01-2.031047974E+01+
*       6.0953235197E+01               0
GRID*               4600               02.0000000000E+01-3.939377113E+00+
*       5.7569882730E+01               0
GRID*               4601               02.0000000000E+01-2.441393509E+00+
*       6.0245063184E+01               0
GRID*               4602               02.0000000000E+01-6.922726637E+00+
*       5.7589692829E+01               0
GRID*               4603               02.0000000000E+01-1.600354006E+01+
*       5.7776287796E+01               0
GRID*               4604               02.0000000000E+01-1.442096148E+01+
*       6.0514333663E+01               0
GRID*               4605               02.0000000000E+01-1.298067972E+01+
*       5.7658409702E+01               0
GRID*               4606               02.0000000000E+01-9.913998256E+00+
*       5.7644618099E+01               0
GRID*               4607               02.0000000000E+01-8.406829526E+00+
*       6.0341530300E+01               0
GRID*               4608               02.0000000000E+01-3.472550131E+01+
*       8.9219189081E+01               0
GRID*               4609               02.0000000000E+01-3.190149080E+01+
*       8.8831020811E+01               0
GRID*               4610               02.0000000000E+01-3.374244931E+01+
*       8.6649366049E+01               0
GRID*               4611               02.0000000000E+01-2.955091174E+01+
*       8.8135627383E+01               0
GRID*               4612               02.0000000000E+01-2.691208470E+01+
*       8.8029503316E+01               0
GRID*               4613               02.0000000000E+01-2.827961176E+01+
*       8.6155073713E+01               0
GRID*               4614               02.0000000000E+01-2.453568836E+01+
*       8.8523790134E+01               0
GRID*               4615               02.0000000000E+01-2.179933190E+01+
*       8.8648664418E+01               0
GRID*               4616               02.0000000000E+01-2.290442826E+01+
*       8.6173823930E+01               0
GRID*               4617               02.0000000000E+01-1.302412785E+01+
*       8.9171681269E+01               0
GRID*               4618               02.0000000000E+01-1.600563686E+01+
*       8.9028638910E+01               0
GRID*               4619               02.0000000000E+01-1.145339967E+01+
*       8.6601084756E+01               0
GRID*               4620               02.0000000000E+01-1.889056460E+01+
*       8.8915300722E+01               0
GRID*               4621               02.0000000000E+01-1.728314406E+01+
*       8.6412036402E+01               0
GRID*               4622               02.0000000000E+01-3.245613672E+01+
*       8.3966968678E+01               0
GRID*               4623               02.0000000000E+01-2.963414396E+01+
*       8.3819517157E+01               0
GRID*               4624               02.0000000000E+01-3.117184188E+01+
*       8.1525288056E+01               0
GRID*               4625               02.0000000000E+01-2.699531692E+01+
*       8.3713393091E+01               0
GRID*               4626               02.0000000000E+01-2.421369970E+01+
*       8.3675357620E+01               0
GRID*               4627               02.0000000000E+01-2.556823190E+01+
*       8.1339801064E+01               0
GRID*               4628               02.0000000000E+01-2.147734324E+01+
*       8.3800231904E+01               0
GRID*               4629               02.0000000000E+01-1.864610108E+01+
*       8.3827810223E+01               0
GRID*               4630               02.0000000000E+01-1.995537251E+01+
*       8.1329343913E+01               0
GRID*               4631               02.0000000000E+01-9.918801821E+00+
*       8.4053253636E+01               0
GRID*               4632               02.0000000000E+01-1.286361847E+01+
*       8.3977543470E+01               0
GRID*               4633               02.0000000000E+01-8.388517749E+00+
*       8.1459024635E+01               0
GRID*               4634               02.0000000000E+01-1.576117333E+01+
*       8.3941148411E+01               0
GRID*               4635               02.0000000000E+01-1.422657549E+01+
*       8.1393317291E+01               0
GRID*               4636               02.0000000000E+01-2.162172781E+01+
*       6.3688542665E+01               0
GRID*               4637               02.0000000000E+01-1.875506989E+01+
*       6.3367519226E+01               0
GRID*               4638               02.0000000000E+01-2.286491115E+01+
*       6.6236729484E+01               0
GRID*               4639               02.0000000000E+01-2.421802395E+01+
*       6.8834231312E+01               0
GRID*               4640               02.0000000000E+01-2.559474737E+01+
*       7.1373488316E+01               0
GRID*               4641               02.0000000000E+01-2.141943076E+01+
*       6.8700328522E+01               0
GRID*               4642               02.0000000000E+01-2.979026557E+01+
*       7.8959401720E+01               0
GRID*               4643               02.0000000000E+01-2.695987105E+01+
*       7.8880994431E+01               0
GRID*               4644               02.0000000000E+01-2.840028750E+01+
*       7.6462559617E+01               0
GRID*               4645               02.0000000000E+01-2.699342208E+01+
*       7.3916649306E+01               0
GRID*               4646               02.0000000000E+01-2.417121827E+01+
*       7.3840991339E+01               0
GRID*               4647               02.0000000000E+01-1.585103989E+01+
*       6.3240922437E+01               0
GRID*               4648               02.0000000000E+01-1.282817955E+01+
*       6.3123044344E+01               0
GRID*               4649               02.0000000000E+01-1.716228796E+01+
*       6.5976229906E+01               0
GRID*               4650               02.0000000000E+01-9.873985229E+00+
*       6.3048275791E+01               0
GRID*               4651               02.0000000000E+01-6.882713610E+00+
*       6.2993350521E+01               0
GRID*               4652               02.0000000000E+01-1.130406364E+01+
*       6.5774864565E+01               0
GRID*               4653               02.0000000000E+012.0336427846E+00+
*       6.2876886114E+01               0
GRID*               4654               02.0000000000E+01-9.429911027E-01+
*       6.2905043007E+01               0
GRID*               4655               02.0000000000E+015.5788079336E-01+
*       6.5578407783E+01               0
GRID*               4656               02.0000000000E+01-3.917155501E+00+
*       6.2946584852E+01               0
GRID*               4657               02.0000000000E+01-5.384311203E+00+
*       6.5653330344E+01               0
GRID*               4658               02.0000000000E+01-2.417825382E+01+
*       7.8842958961E+01               0
GRID*               4659               02.0000000000E+01-2.135073080E+01+
*       7.8798886333E+01               0
GRID*               4660               02.0000000000E+01-2.274236995E+01+
*       7.6340079700E+01               0
GRID*               4661               02.0000000000E+01-1.857073942E+01+
*       6.8624207511E+01               0
GRID*               4662               02.0000000000E+01-1.566670943E+01+
*       6.8497610722E+01               0
GRID*               4663               02.0000000000E+01-1.992385222E+01+
*       7.1221709339E+01               0
GRID*               4664               02.0000000000E+01-2.134369524E+01+
*       7.3796918711E+01               0
GRID*               4665               02.0000000000E+01-1.849500391E+01+
*       7.3720797699E+01               0
GRID*               4666               02.0000000000E+01-1.275904309E+01+
*       6.8441593283E+01               0
GRID*               4667               02.0000000000E+01-9.804848759E+00+
*       6.8366824730E+01               0
GRID*               4668               02.0000000000E+01-1.416749455E+01+
*       7.1089570888E+01               0
GRID*               4669               02.0000000000E+01-9.307338327E-01+
*       6.8266223847E+01               0
GRID*               4670               02.0000000000E+01-3.896508554E+00+
*       6.8283086403E+01               0
GRID*               4671               02.0000000000E+01-2.408489293E+00+
*       7.0942745575E+01               0
GRID*               4672               02.0000000000E+01-6.862066663E+00+
*       6.8329852072E+01               0
GRID*               4673               02.0000000000E+01-8.317046110E+00+
*       7.0996580790E+01               0
GRID*               4674               02.0000000000E+01-6.892705145E+00+
*       7.8861910489E+01               0
GRID*               4675               02.0000000000E+01-9.833208019E+00+
*       7.8832598204E+01               0
GRID*               4676               02.0000000000E+01-5.385721489E+00+
*       7.6237237493E+01               0
GRID*               4677               02.0000000000E+01-3.904155788E+00+
*       7.3599299530E+01               0
GRID*               4678               02.0000000000E+01-6.855829714E+00+
*       7.3597546094E+01               0
GRID*               4679               02.0000000000E+01-1.851948863E+01+
*       7.8826464652E+01               0
GRID*               4680               02.0000000000E+01-1.565122680E+01+
*       7.8802921946E+01               0
GRID*               4681               02.0000000000E+01-1.704658509E+01+
*       7.6272464365E+01               0
GRID*               4682               02.0000000000E+01-1.275367194E+01+
*       7.8839317005E+01               0
GRID*               4683               02.0000000000E+01-1.125785933E+01+
*       7.6242202858E+01               0
GRID*               4684               02.0000000000E+01-1.562674207E+01+
*       7.3697254993E+01               0
GRID*               4685               02.0000000000E+01-1.271907573E+01+
*       7.3641237554E+01               0
GRID*               4686               02.0000000000E+01-9.798611810E+00+
*       7.3634518753E+01               0
GRID*               4687               02.0000000000E+01-5.231318565E+00+
*       3.3693244137E+01               0
GRID*               4688               02.0000000000E+01-3.798053712E+00+
*       3.1334056362E+01               0
GRID*               4689               02.0000000000E+01-3.894204763E+00+
*       3.6297395473E+01               0
GRID*               4690               02.0000000000E+01-2.477992920E+00+
*       3.8840888746E+01               0
GRID*               4691               02.0000000000E+01-1.052503597E+00+
*       3.6331299194E+01               0
GRID*               4692               02.0000000000E+01-1.058707981E+00+
*       4.1491641749E+01               0
GRID*               4693               02.0000000000E+014.1661780108E-01+
*       4.4094424085E+01               0
GRID*               4694               02.0000000000E+011.8390340270E+00+
*       4.1477574802E+01               0
GRID*               4695               02.0000000000E+014.9016383653E+00+
*       5.2071681677E+01               0
GRID*               4696               02.0000000000E+013.4013336285E+00+
*       4.9401501085E+01               0
GRID*               4697               02.0000000000E+016.4318842769E+00+
*       5.4725789310E+01               0
GRID*               4698               02.0000000000E+017.8684939489E+00+
*       5.2005417756E+01               0
GRID*               4699               02.0000000000E+011.8893895141E+00+
*       4.6766024592E+01               0
GRID*               4700               02.0000000000E+014.8263039230E+00+
*       4.6715833630E+01               0
GRID*               4701               02.0000000000E+017.9433989937E+00+
*       5.7392942425E+01               0
GRID*               4702               02.0000000000E+019.4833849008E+00+
*       6.0061869633E+01               0
GRID*               4703               02.0000000000E+011.0938725768E+01+
*       5.7328452597E+01               0
GRID*               4704               02.0000000000E+011.1000403395E+01+
*       6.2738904333E+01               0
GRID*               4705               02.0000000000E+011.2558099000E+01+
*       6.5436707827E+01               0
GRID*               4706               02.0000000000E+011.4036407279E+01+
*       6.2695183299E+01               0
GRID*               4707               02.0000000000E+011.4076290820E+01+
*       6.8144386302E+01               0
GRID*               4708               02.0000000000E+011.5661701387E+01+
*       7.0926133296E+01               0
GRID*               4709               02.0000000000E+011.7179513451E+01+
*       6.8174733786E+01               0
GRID*               4710               02.0000000000E+012.1340518128E+01+
*       8.2047374767E+01               0
GRID*               4711               02.0000000000E+012.2753979492E+01+
*       8.4725283532E+01               0
GRID*               4712               02.0000000000E+011.7151505430E+01+
*       7.3673168810E+01               0
GRID*               4713               02.0000000000E+011.8598411490E+01+
*       7.6545814317E+01               0
GRID*               4714               02.0000000000E+012.0211830078E+01+
*       7.3829126286E+01               0
GRID*               4715               02.0000000000E+012.0032393230E+01+
*       7.9283091055E+01               0
GRID*               4716               02.0000000000E+012.2966861036E+01+
*       7.9466055505E+01               0
GRID*               4717               02.0000000000E+012.4118188062E+01+
*       8.7355391114E+01               0
GRID*               4718               02.0000000000E+012.5639194505E+01+
*       8.4860446799E+01               0
GRID*               4719               02.0000000000E+012.8463618639E+01+
*       9.5196935579E+01               0
GRID*               4720               02.0000000000E+012.6989539928E+01+
*       9.2583530121E+01               0
GRID*               4721               02.0000000000E+012.9942617165E+01+
*       9.7788569085E+01               0
GRID*               4722               02.0000000000E+013.1346041222E+01+
*       9.5275960218E+01               0
GRID*               4723               02.0000000000E+012.5557720118E+01+
*       8.9986643956E+01               0
GRID*               4724               02.0000000000E+012.8435222885E+01+
*       9.0087440547E+01               0
GRID*               4725               02.0000000000E+013.1441030292E+01+
*       1.0039833178E+02               0
GRID*               4726               02.0000000000E+013.2948898188E+01+
*       1.0299250233E+02               0
GRID*               4727               02.0000000000E+013.4332907645E+01+
*       1.0046176427E+02               0
GRID*               4728               02.0000000000E+013.7505757621E+01+
*       1.1081585948E+02               0
GRID*               4729               02.0000000000E+013.5985788168E+01+
*       1.0820277216E+02               0
GRID*               4730               02.0000000000E+013.9037336384E+01+
*       1.1341924423E+02               0
GRID*               4731               02.0000000000E+014.0419973424E+01+
*       1.1085703866E+02               0
GRID*               4732               02.0000000000E+013.4461978609E+01+
*       1.0560391261E+02               0
GRID*               4733               02.0000000000E+013.7364585101E+01+
*       1.0565479436E+02               0
GRID*               4734               02.0000000000E+014.0560184668E+01+
*       1.1603445887E+02               0
GRID*               4735               02.0000000000E+014.2095691011E+01+
*       1.1864113010E+02               0
GRID*               4736               02.0000000000E+014.3487058530E+01+
*       1.1606709464E+02               0
GRID*               4737               02.0000000000E+014.5159470385E+01+
*       1.2386599581E+02               0
GRID*               4738               02.0000000000E+014.6685158325E+01+
*       1.2648387787E+02               0
GRID*               4739               02.0000000000E+014.3621081123E+01+
*       1.2125711981E+02               0
GRID*               4740               02.0000000000E+014.6560954136E+01+
*       1.2128264186E+02               0
GRID*               4741               02.0000000000E+014.8227132590E+01+
*       1.2909478047E+02               0
GRID*               4742               02.0000000000E+014.9641317664E+01+
*       1.2650242045E+02               0
GRID*               4743               02.0000000000E+014.9755836227E+01+
*       1.3171340592E+02               0
GRID*               4744               02.0000000000E+015.1302604532E+01+
*       1.3432607438E+02               0
GRID*               4745               02.0000000000E+015.2730060235E+01+
*       1.3172599151E+02               0
GRID*               4746               02.0000000000E+015.2836355113E+01+
*       1.3694353912E+02               0
GRID*               4747               02.0000000000E+015.4388471387E+01+
*       1.3955675891E+02               0
GRID*               4748               02.0000000000E+015.5828944814E+01+
*       1.3695187977E+02               0
GRID*               4749               02.0000000000E+015.9037114066E+01+
*       1.4739363120E+02               0
GRID*               4750               02.0000000000E+015.7487245609E+01+
*       1.4478298260E+02               0
GRID*               4751               02.0000000000E+016.2067417096E+01+
*       1.4739363120E+02               0
GRID*               4752               02.0000000000E+015.5928540875E+01+
*       1.4217190118E+02               0
GRID*               4753               02.0000000000E+015.8939765822E+01+
*       1.4217618098E+02               0
GRID*               4754               02.0000000000E+01-2.463278673E+00+
*       2.8889497468E+01               0
GRID*               4755               02.0000000000E+01-1.159236381E+00+
*       2.6642435603E+01               0
GRID*               4756               02.0000000000E+011.7208502468E+00+
*       3.6309386188E+01               0
GRID*               4757               02.0000000000E+013.0463840476E-01+
*       3.3765892915E+01               0
GRID*               4758               02.0000000000E+013.2134899722E+00+
*       3.8827082260E+01               0
GRID*               4759               02.0000000000E+014.5706319737E+00+
*       3.6261675981E+01               0
GRID*               4760               02.0000000000E+01-1.133940400E+00+
*       3.1343247026E+01               0
GRID*               4761               02.0000000000E+011.6394134433E+00+
*       3.1321334020E+01               0
GRID*               4762               02.0000000000E+014.6888157539E+00+
*       4.1429864596E+01               0
GRID*               4763               02.0000000000E+016.2226896325E+00+
*       4.4009019880E+01               0
GRID*               4764               02.0000000000E+017.5971455778E+00+
*       4.1358527338E+01               0
GRID*               4765               02.0000000000E+011.0823678932E+01+
*       5.1924823670E+01               0
GRID*               4766               02.0000000000E+019.2934330202E+00+
*       4.9270716037E+01               0
GRID*               4767               02.0000000000E+011.2388247988E+01+
*       5.4584856617E+01               0
GRID*               4768               02.0000000000E+011.3813187059E+01+
*       5.1850154898E+01               0
GRID*               4769               02.0000000000E+017.7346337469E+00+
*       4.6644496372E+01               0
GRID*               4770               02.0000000000E+011.0689818730E+01+
*       4.6563902287E+01               0
GRID*               4771               02.0000000000E+012.3649819768E+01+
*       7.3934368021E+01               0
GRID*               4772               02.0000000000E+012.2202913708E+01+
*       7.1061722515E+01               0
GRID*               4773               02.0000000000E+012.4556903466E+01+
*       7.7100180696E+01               0
GRID*               4774               02.0000000000E+012.6547987096E+01+
*       7.4332776924E+01               0
GRID*               4775               02.0000000000E+012.8449985719E+01+
*       8.5067080615E+01               0
GRID*               4776               02.0000000000E+012.7085777149E+01+
*       8.2436973032E+01               0
GRID*               4777               02.0000000000E+012.9820687958E+01+
*       8.7617724756E+01               0
GRID*               4778               02.0000000000E+013.1267270602E+01+
*       8.5194250988E+01               0
GRID*               4779               02.0000000000E+012.5865028364E+01+
*       7.9864464407E+01               0
GRID*               4780               02.0000000000E+012.8675819579E+01+
*       8.0071098223E+01               0
GRID*               4781               02.0000000000E+011.3928233895E+01+
*       5.7253783825E+01               0
GRID*               4782               02.0000000000E+011.5498473013E+01+
*       5.9926153830E+01               0
GRID*               4783               02.0000000000E+011.6947995233E+01+
*       5.7182557850E+01               0
GRID*               4784               02.0000000000E+012.0278065080E+01+
*       6.8105264736E+01               0
GRID*               4785               02.0000000000E+011.8692654513E+01+
*       6.5323517743E+01               0
GRID*               4786               02.0000000000E+012.3716054771E+01+
*       6.8210506471E+01               0
GRID*               4787               02.0000000000E+011.7056168617E+01+
*       6.2623957324E+01               0
GRID*               4788               02.0000000000E+012.0154720247E+01+
*       6.2554488274E+01               0
GRID*               4789               02.0000000000E+015.8801507374E+01+
*       1.3694814050E+02               0
GRID*               4790               02.0000000000E+015.7249391100E+01+
*       1.3433492072E+02               0
GRID*               4791               02.0000000000E+016.0375736405E+01+
*       1.3956341814E+02               0
GRID*               4792               02.0000000000E+016.1796182691E+01+
*       1.3694645910E+02               0
GRID*               4793               02.0000000000E+016.5080684669E+01+
*       1.4739353872E+02               0
GRID*               4794               02.0000000000E+016.3511738129E+01+
*       1.4478716992E+02               0
GRID*               4795               02.0000000000E+016.8110987699E+01+
*       1.4739353872E+02               0
GRID*               4796               02.0000000000E+016.1934441140E+01+
*       1.4217449957E+02               0
GRID*               4797               02.0000000000E+016.4947708712E+01+
*       1.4217440709E+02               0
GRID*               4798               02.0000000000E+014.9467719936E+01+
*       1.2129493637E+02               0
GRID*               4799               02.0000000000E+014.7929330674E+01+
*       1.1868606037E+02               0
GRID*               4800               02.0000000000E+015.1025297054E+01+
*       1.2389502109E+02               0
GRID*               4801               02.0000000000E+015.2393673592E+01+
*       1.2129843960E+02               0
GRID*               4802               02.0000000000E+015.5678581169E+01+
*       1.3172355665E+02               0
GRID*               4803               02.0000000000E+015.4131812863E+01+
*       1.2911088818E+02               0
GRID*               4804               02.0000000000E+015.8651143728E+01+
*       1.3171981739E+02               0
GRID*               4805               02.0000000000E+015.2567271319E+01+
*       1.2650592369E+02               0
GRID*               4806               02.0000000000E+015.5515792253E+01+
*       1.2650348882E+02               0
GRID*               4807               02.0000000000E+013.1252507768E+01+
*       9.0214610920E+01               0
GRID*               4808               02.0000000000E+013.2700433179E+01+
*       9.2774554505E+01               0
GRID*               4809               02.0000000000E+013.4085898251E+01+
*       9.0304838713E+01               0
GRID*               4810               02.0000000000E+013.7180727321E+01+
*       1.0052826238E+02               0
GRID*               4811               02.0000000000E+013.5672859425E+01+
*       9.7934091840E+01               0
GRID*               4812               02.0000000000E+013.8702169394E+01+
*       1.0310423528E+02               0
GRID*               4813               02.0000000000E+014.0042121174E+01+
*       1.0057656285E+02               0
GRID*               4814               02.0000000000E+013.4179431705E+01+
*       9.5366188011E+01               0
GRID*               4815               02.0000000000E+013.7027251381E+01+
*       9.5432686126E+01               0
GRID*               4816               02.0000000000E+014.0225978954E+01+
*       1.0570309483E+02               0
GRID*               4817               02.0000000000E+014.1763809643E+01+
*       1.0828769877E+02               0
GRID*               4818               02.0000000000E+014.3101393936E+01+
*       1.0573713969E+02               0
GRID*               4819               02.0000000000E+014.6377415234E+01+
*       1.1608954991E+02               0
GRID*               4820               02.0000000000E+014.4841908890E+01+
*       1.1348287869E+02               0
GRID*               4821               02.0000000000E+014.9284181034E+01+
*       1.1610184441E+02               0
GRID*               4822               02.0000000000E+014.3295388406E+01+
*       1.1089108353E+02               0
GRID*               4823               02.0000000000E+014.6185745110E+01+
*       1.1091353879E+02               0
GRID*               4824               02.0000000000E+015.5692101023E+00+
*       1.1892834834E+01               0
GRID*               4825               02.0000000000E+017.5854918655E+00+
*       1.1746940969E+01               0
GRID*               4826               02.0000000000E+014.2890349364E+00+
*       1.4260201292E+01               0
GRID*               4827               02.0000000000E+013.3366312939E+00+
*       1.6778449942E+01               0
GRID*               4828               02.0000000000E+015.8640229996E+00+
*       1.6407595921E+01               0
GRID*               4829               02.0000000000E+016.2061858504E-02+
*       2.4195936101E+01               0
GRID*               4830               02.0000000000E+011.4221328775E+00+
*       2.6452188629E+01               0
GRID*               4831               02.0000000000E+012.2520425314E+00+
*       1.9314546292E+01               0
GRID*               4832               02.0000000000E+011.1179484112E+00+
*       2.1854468570E+01               0
GRID*               4833               02.0000000000E+013.7775252368E+00+
*       2.1465766848E+01               0
GRID*               4834               02.0000000000E+012.9250073568E+00+
*       2.8778287364E+01               0
GRID*               4835               02.0000000000E+014.1463055959E+00+
*       2.6331787861E+01               0
GRID*               4836               02.0000000000E+013.2754805947E+01+
*       7.3683573200E+01               0
GRID*               4837               02.0000000000E+013.1611248684E+01+
*       7.5997092806E+01               0
GRID*               4838               02.0000000000E+013.3830266689E+01+
*       7.5759053582E+01               0
GRID*               4839               02.0000000000E+013.3282587316E+01+
*       7.1343328458E+01               0
GRID*               4840               02.0000000000E+013.1063569312E+01+
*       7.1581367682E+01               0
GRID*               4841               02.0000000000E+013.0070890110E+01+
*       7.7785581393E+01               0
GRID*               4842               02.0000000000E+013.1291638895E+01+
*       8.0358090018E+01               0
GRID*               4843               02.0000000000E+012.8995429368E+01+
*       7.5710101011E+01               0
GRID*               4844               02.0000000000E+013.8080661929E+01+
*       8.2971110609E+01               0
GRID*               4845               02.0000000000E+013.6777311404E+01+
*       8.5417594089E+01               0
GRID*               4846               02.0000000000E+013.9501959951E+01+
*       8.5477461099E+01               0
GRID*               4847               02.0000000000E+013.9359158661E+01+
*       8.0560944656E+01               0
GRID*               4848               02.0000000000E+013.6634510115E+01+
*       8.0501077646E+01               0
GRID*               4849               02.0000000000E+013.5299858136E+01+
*       7.8081742440E+01               0
GRID*               4850               02.0000000000E+013.6443415399E+01+
*       7.5768222834E+01               0
GRID*               4851               02.0000000000E+013.4021361404E+01+
*       8.0491908394E+01               0
GRID*               4852               02.0000000000E+013.5418291133E+01+
*       8.7834419854E+01               0
GRID*               4853               02.0000000000E+013.6866216544E+01+
*       9.0394363438E+01               0
GRID*               4854               02.0000000000E+013.3996993112E+01+
*       8.5328069364E+01               0
GRID*               4855               02.0000000000E+013.2626290873E+01+
*       8.2777425223E+01               0
GRID*               4856               02.0000000000E+012.8616127040E+01+
*       7.0204043595E+01               0
GRID*               4857               02.0000000000E+012.9727527751E+01+
*       6.6992401795E+01               0
GRID*               4858               02.0000000000E+012.6752304109E+01+
*       6.7955322450E+01               0
GRID*               4859               02.0000000000E+012.8088345670E+01+
*       7.2544288337E+01               0
GRID*               4860               02.0000000000E+012.4827455482E+01+
*       6.4998864672E+01               0
GRID*               4861               02.0000000000E+012.6184914685E+01+
*       6.2212479506E+01               0
GRID*               4862               02.0000000000E+012.3148665346E+01+
*       6.2467663528E+01               0
GRID*               4863               02.0000000000E+012.1512179450E+01+
*       5.9768103109E+01               0
GRID*               4864               02.0000000000E+012.2952962728E+01+
*       5.7043071502E+01               0
GRID*               4865               02.0000000000E+011.9959017628E+01+
*       5.7129896249E+01               0
GRID*               4866               02.0000000000E+011.8388778511E+01+
*       5.4457526244E+01               0
GRID*               4867               02.0000000000E+011.9822612965E+01+
*       5.1709371957E+01               0
GRID*               4868               02.0000000000E+011.6811590569E+01+
*       5.1762033558E+01               0
GRID*               4869               02.0000000000E+011.5247021513E+01+
*       4.9102000611E+01               0
GRID*               4870               02.0000000000E+011.6630395580E+01+
*       4.6361223876E+01               0
GRID*               4871               02.0000000000E+011.3631992070E+01+
*       4.6449345217E+01               0
GRID*               4872               02.0000000000E+014.3635861617E+00+
*       3.1200933253E+01               0
GRID*               4873               02.0000000000E+015.8857087375E+00+
*       3.3637844973E+01               0
GRID*               4874               02.0000000000E+017.1713026510E+00+
*       3.1094798317E+01               0
GRID*               4875               02.0000000000E+011.2073192797E+01+
*       4.3823125552E+01               0
GRID*               4876               02.0000000000E+011.3416146753E+01+
*       4.1130335557E+01               0
GRID*               4877               02.0000000000E+011.0473973413E+01+
*       4.1244892627E+01               0
GRID*               4878               02.0000000000E+017.3783484630E+00+
*       3.6155541045E+01               0
GRID*               4879               02.0000000000E+018.9400995339E+00+
*       3.8665737342E+01               0
GRID*               4880               02.0000000000E+011.0255176298E+01+
*       3.6041906334E+01               0
GRID*               4881               02.0000000000E+014.0958705945E+01+
*       8.7976055900E+01               0
GRID*               4882               02.0000000000E+013.9672494193E+01+
*       9.0454677410E+01               0
GRID*               4883               02.0000000000E+014.2432590712E+01+
*       9.0506788731E+01               0
GRID*               4884               02.0000000000E+014.2262056470E+01+
*       8.5529572421E+01               0
GRID*               4885               02.0000000000E+013.8340101311E+01+
*       9.2925096269E+01               0
GRID*               4886               02.0000000000E+013.9833529031E+01+
*       9.5493000098E+01               0
GRID*               4887               02.0000000000E+014.3931863422E+01+
*       9.3009171792E+01               0
GRID*               4888               02.0000000000E+014.2657737434E+01+
*       9.5527687039E+01               0
GRID*               4889               02.0000000000E+014.5443221896E+01+
*       9.5551448590E+01               0
GRID*               4890               02.0000000000E+014.5218075174E+01+
*       9.0530550282E+01               0
GRID*               4891               02.0000000000E+014.1344887504E+01+
*       9.8035276896E+01               0
GRID*               4892               02.0000000000E+014.2866329577E+01+
*       1.0061124979E+02               0
GRID*               4893               02.0000000000E+014.6985267723E+01+
*       9.8070420317E+01               0
GRID*               4894               02.0000000000E+014.5708272853E+01+
*       1.0062597654E+02               0
GRID*               4895               02.0000000000E+014.8524444668E+01+
*       1.0062643302E+02               0
GRID*               4896               02.0000000000E+014.8259393712E+01+
*       9.5551905070E+01               0
GRID*               4897               02.0000000000E+014.4405506522E+01+
*       1.0316726250E+02               0
GRID*               4898               02.0000000000E+014.5943337212E+01+
*       1.0575186644E+02               0
GRID*               4899               02.0000000000E+015.0093482484E+01+
*       1.0316816420E+02               0
GRID*               4900               02.0000000000E+014.8803338971E+01+
*       1.0575156136E+02               0
GRID*               4901               02.0000000000E+015.1649371657E+01+
*       1.0573773631E+02               0
GRID*               4902               02.0000000000E+015.1370477354E+01+
*       1.0061260797E+02               0
GRID*               4903               02.0000000000E+014.7499226384E+01+
*       1.0832143855E+02               0
GRID*               4904               02.0000000000E+014.9045746869E+01+
*       1.1091323371E+02               0
GRID*               4905               02.0000000000E+015.3229588066E+01+
*       1.0829883812E+02               0
GRID*               4906               02.0000000000E+015.1924331652E+01+
*       1.1090020065E+02               0
GRID*               4907               02.0000000000E+015.4794691575E+01+
*       1.1087790530E+02               0
GRID*               4908               02.0000000000E+015.4519731580E+01+
*       1.0571544095E+02               0
GRID*               4909               02.0000000000E+015.0610850377E+01+
*       1.1349230089E+02               0
GRID*               4910               02.0000000000E+015.2162765817E+01+
*       1.1608881135E+02               0
GRID*               4911               02.0000000000E+015.6379972162E+01+
*       1.1344740379E+02               0
GRID*               4912               02.0000000000E+015.5062477567E+01+
*       1.1606363247E+02               0
GRID*               4913               02.0000000000E+015.7953014568E+01+
*       1.1603176844E+02               0
GRID*               4914               02.0000000000E+015.7685228576E+01+
*       1.1084604126E+02               0
GRID*               4915               02.0000000000E+015.3735808224E+01+
*       1.1867317599E+02               0
GRID*               4916               02.0000000000E+015.5293385341E+01+
*       1.2127326072E+02               0
GRID*               4917               02.0000000000E+015.9549979420E+01+
*       1.1860289179E+02               0
GRID*               4918               02.0000000000E+015.8219602753E+01+
*       1.2123872148E+02               0
GRID*               4919               02.0000000000E+016.1134062199E+01+
*       1.2119361616E+02               0
GRID*               4920               02.0000000000E+016.0867474015E+01+
*       1.1598666311E+02               0
GRID*               4921               02.0000000000E+015.6877468121E+01+
*       1.2386398509E+02               0
GRID*               4922               02.0000000000E+015.8442009665E+01+
*       1.2646894959E+02               0
GRID*               4923               02.0000000000E+016.2753785087E+01+
*       1.2377534988E+02               0
GRID*               4924               02.0000000000E+016.1400143700E+01+
*       1.2643351637E+02               0
GRID*               4925               02.0000000000E+016.4350243254E+01+
*       1.2637942039E+02               0
GRID*               4926               02.0000000000E+016.4084161753E+01+
*       1.2113952018E+02               0
GRID*               4927               02.0000000000E+016.0038467832E+01+
*       1.2907302010E+02               0
GRID*               4928               02.0000000000E+016.1609277763E+01+
*       1.3168438417E+02               0
GRID*               4929               02.0000000000E+016.5992612486E+01+
*       1.2899363956E+02               0
GRID*               4930               02.0000000000E+016.4597814947E+01+
*       1.3165949175E+02               0
GRID*               4931               02.0000000000E+016.7593825566E+01+
*       1.3161554442E+02               0
GRID*               4932               02.0000000000E+016.7346253873E+01+
*       1.2633547306E+02               0
GRID*               4933               02.0000000000E+016.3210490844E+01+
*       1.3430628904E+02               0
GRID*               4934               02.0000000000E+016.4784719875E+01+
*       1.3692156668E+02               0
GRID*               4935               02.0000000000E+016.9223826739E+01+
*       1.3427041490E+02               0
GRID*               4936               02.0000000000E+016.7792537674E+01+
*       1.3691097854E+02               0
GRID*               4937               02.0000000000E+017.0817336385E+01+
*       1.3689999682E+02               0
GRID*               4938               02.0000000000E+017.0618624277E+01+
*       1.3160456271E+02               0
GRID*               4939               02.0000000000E+016.6378229521E+01+
*       1.3955114860E+02               0
GRID*               4940               02.0000000000E+016.7955526511E+01+
*       1.4216381895E+02               0
GRID*               4941               02.0000000000E+017.7165274780E+01+
*       1.4739813914E+02               0
GRID*               4942               02.0000000000E+018.0195577810E+01+
*       1.4739813914E+02               0
GRID*               4943               02.0000000000E+017.4159093011E+01+
*       1.4739033716E+02               0
GRID*               4944               02.0000000000E+017.1128789981E+01+
*       1.4739033716E+02               0
GRID*               4945               02.0000000000E+017.5566792034E+01+
*       1.4478847630E+02               0
GRID*               4946               02.0000000000E+017.6996009904E+01+
*       1.4218096979E+02               0
GRID*               4947               02.0000000000E+017.3989828135E+01+
*       1.4217316780E+02               0
GRID*               4948               02.0000000000E+016.9542807983E+01+
*       1.4478387587E+02               0
GRID*               4949               02.0000000000E+017.0973328793E+01+
*       1.4216061739E+02               0
GRID*               4950               02.0000000000E+017.2402546663E+01+
*       1.3955311088E+02               0
GRID*               4951               02.0000000000E+017.3833835728E+01+
*       1.3691254724E+02               0
GRID*               4952               02.0000000000E+014.8923000747E+01+
*       5.6544206675E+01               0
GRID*               4953               02.0000000000E+014.7987198066E+01+
*       5.9027549486E+01               0
GRID*               4954               02.0000000000E+015.0696088773E+01+
*       5.8695536789E+01               0
GRID*               4955               02.0000000000E+014.7269913384E+01+
*       5.4251433498E+01               0
GRID*               4956               02.0000000000E+014.5435002318E+01+
*       5.1987377485E+01               0
GRID*               4957               02.0000000000E+014.4379198975E+01+
*       5.4612163359E+01               0
GRID*               4958               02.0000000000E+014.9978804090E+01+
*       5.3919420801E+01               0
GRID*               4959               02.0000000000E+015.3128232214E+01+
*       5.3647877363E+01               0
GRID*               4960               02.0000000000E+015.1475144851E+01+
*       5.1355104186E+01               0
GRID*               4961               02.0000000000E+012.4181367001E+01+
*       1.9217285929E+01               0
GRID*               4962               02.0000000000E+012.3503757675E+01+
*       2.1156803015E+01               0
GRID*               4963               02.0000000000E+012.5135821012E+01+
*       2.0873488007E+01               0
GRID*               4964               02.0000000000E+012.2854143826E+01+
*       1.7800909117E+01               0
GRID*               4965               02.0000000000E+012.1459605924E+01+
*       1.6842276294E+01               0
GRID*               4966               02.0000000000E+012.1154765763E+01+
*       1.8541968113E+01               0
GRID*               4967               02.0000000000E+012.4486207163E+01+
*       1.7517594109E+01               0
GRID*               4968               02.0000000000E+012.1896137345E+01+
*       2.2609481263E+01               0
GRID*               4969               02.0000000000E+012.0849343071E+01+
*       2.4928121476E+01               0
GRID*               4970               02.0000000000E+012.3411417412E+01+
*       2.5131645306E+01               0
GRID*               4971               02.0000000000E+012.0941683334E+01+
*       2.0953279185E+01               0
GRID*               4972               02.0000000000E+011.9547145433E+01+
*       1.9994646362E+01               0
GRID*               4973               02.0000000000E+011.7818268988E+01+
*       1.8024567178E+01               0
GRID*               4974               02.0000000000E+011.7605186559E+01+
*       2.0435878250E+01               0
GRID*               4975               02.0000000000E+011.1244346649E+01+
*       1.0954331618E+01               0
GRID*               4976               02.0000000000E+019.6566860206E+00+
*       1.1139567752E+01               0
GRID*               4977               02.0000000000E+011.9963175941E+01+
*       1.5800036444E+01               0
GRID*               4978               02.0000000000E+012.1662554004E+01+
*       1.5058977447E+01               0
GRID*               4979               02.0000000000E+011.2458486014E+01+
*       1.1979786167E+01               0
GRID*               4980               02.0000000000E+011.2744017711E+01+
*       1.0259516950E+01               0
GRID*               4981               02.0000000000E+011.4160127810E+01+
*       1.2951045311E+01               0
GRID*               4982               02.0000000000E+011.2660456748E+01+
*       1.3645859980E+01               0
GRID*               4983               02.0000000000E+011.8608573311E+01+
*       1.6480167437E+01               0
GRID*               4984               02.0000000000E+011.6666614438E+01+
*       1.6921399324E+01               0
GRID*               4985               02.0000000000E+011.8811521391E+01+
*       1.4696868590E+01               0
GRID*               4986               02.0000000000E+011.8607226318E+01+
*       1.3178203679E+01               0
GRID*               4987               02.0000000000E+011.7252623688E+01+
*       1.3858334672E+01               0
GRID*               4988               02.0000000000E+011.5909508653E+01+
*       1.4997059354E+01               0
GRID*               4989               02.0000000000E+011.5119204329E+01+
*       1.6541459095E+01               0
GRID*               4990               02.0000000000E+011.5705213580E+01+
*       1.3478394442E+01               0
GRID*               4991               02.0000000000E+011.5503242846E+01+
*       1.1812320629E+01               0
GRID*               4992               02.0000000000E+012.6730903089E+01+
*       2.9425387164E+01               0
GRID*               4993               02.0000000000E+012.8676745199E+01+
*       3.1569691733E+01               0
GRID*               4994               02.0000000000E+012.9594918338E+01+
*       2.8910400557E+01               0
GRID*               4995               02.0000000000E+012.5006849683E+01+
*       2.7108190753E+01               0
GRID*               4996               02.0000000000E+012.6053643957E+01+
*       2.4789550540E+01               0
GRID*               4997               02.0000000000E+012.4088676545E+01+
*       2.9767481929E+01               0
GRID*               4998               02.0000000000E+012.6683686095E+01+
*       2.2360886879E+01               0
GRID*               4999               02.0000000000E+012.7361295421E+01+
*       2.0421369793E+01               0
GRID*               5000               02.0000000000E+012.8279118366E+01+
*       2.4337432326E+01               0
GRID*               5001               02.0000000000E+013.2200205121E+01+
*       2.8253983612E+01               0
GRID*               5002               02.0000000000E+013.4426584327E+01+
*       3.0299877191E+01               0
GRID*               5003               02.0000000000E+013.5086029000E+01+
*       2.7499155677E+01               0
GRID*               5004               02.0000000000E+013.0254363011E+01+
*       2.6109679043E+01               0
GRID*               5005               02.0000000000E+013.0884405149E+01+
*       2.3681015381E+01               0
GRID*               5006               02.0000000000E+013.2857324067E+01+
*       3.6303569032E+01               0
GRID*               5007               02.0000000000E+013.1881594953E+01+
*       3.9533424068E+01               0
GRID*               5008               02.0000000000E+013.5032800269E+01+
*       3.8924114564E+01               0
GRID*               5009               02.0000000000E+013.0623439599E+01+
*       3.3983791831E+01               0
GRID*               5010               02.0000000000E+012.7759424351E+01+
*       3.4498778438E+01               0
GRID*               5011               02.0000000000E+013.3774644915E+01+
*       3.3374482327E+01               0
GRID*               5012               02.0000000000E+013.6660468794E+01+
*       3.2619654392E+01               0
GRID*               5013               02.0000000000E+013.9101783215E+01+
*       3.4766096089E+01               0
GRID*               5014               02.0000000000E+013.9753722627E+01+
*       3.1691490953E+01               0
GRID*               5015               02.0000000000E+013.8705967989E+01+
*       3.8301204167E+01               0
GRID*               5016               02.0000000000E+013.7730238876E+01+
*       4.1531059203E+01               0
GRID*               5017               02.0000000000E+014.1799221822E+01+
*       3.7373040729E+01               0
GRID*               5018               02.0000000000E+014.4307213259E+01+
*       3.9298294392E+01               0
GRID*               5019               02.0000000000E+014.4703028485E+01+
*       3.5763186315E+01               0
GRID*               5020               02.0000000000E+015.2472280355E+01+
*       4.8714192047E+01               0
GRID*               5021               02.0000000000E+014.9322852231E+01+
*       4.8985735484E+01               0
GRID*               5022               02.0000000000E+015.2997149630E+01+
*       4.5622230758E+01               0
GRID*               5023               02.0000000000E+015.3619143689E+01+
*       4.3037757081E+01               0
GRID*               5024               02.0000000000E+015.0941981794E+01+
*       4.3760349668E+01               0
GRID*               5025               02.0000000000E+015.5149442250E+01+
*       4.7991599460E+01               0
GRID*               5026               02.0000000000E+014.3644039697E+01+
*       4.9645217072E+01               0
GRID*               5027               02.0000000000E+014.1634031137E+01+
*       4.7222124047E+01               0
GRID*               5028               02.0000000000E+014.0534279350E+01+
*       4.9925014320E+01               0
GRID*               5029               02.0000000000E+014.6534754105E+01+
*       4.9284487212E+01               0
GRID*               5030               02.0000000000E+014.7531889610E+01+
*       4.6643575072E+01               0
GRID*               5031               02.0000000000E+013.9963838693E+01+
*       4.4205035050E+01               0
GRID*               5032               02.0000000000E+013.6290670973E+01+
*       4.4827945447E+01               0
GRID*               5033               02.0000000000E+014.8732257433E+01+
*       4.4490078361E+01               0
GRID*               5034               02.0000000000E+014.5944159307E+01+
*       4.4788830089E+01               0
GRID*               5035               02.0000000000E+014.9354251492E+01+
*       4.1905604685E+01               0
GRID*               5036               02.0000000000E+014.9387497886E+01+
*       3.9432157985E+01               0
GRID*               5037               02.0000000000E+014.7177773526E+01+
*       4.0161886678E+01               0
GRID*               5038               02.0000000000E+014.4273966864E+01+
*       4.1771741092E+01               0
GRID*               5039               02.0000000000E+014.3073599040E+01+
*       4.3925237803E+01               0
GRID*               5040               02.0000000000E+014.0696922842E+01+
*       7.8094021877E+01               0
GRID*               5041               02.0000000000E+014.2143074657E+01+
*       8.0564054841E+01               0
GRID*               5042               02.0000000000E+013.9156152321E+01+
*       7.5573347973E+01               0
GRID*               5043               02.0000000000E+013.7686560874E+01+
*       7.3250659114E+01               0
GRID*               5044               02.0000000000E+014.1940068317E+01+
*       7.5576458158E+01               0
GRID*               5045               02.0000000000E+014.5093507827E+01+
*       7.5388837384E+01               0
GRID*               5046               02.0000000000E+014.3552737306E+01+
*       7.2868163479E+01               0
GRID*               5047               02.0000000000E+014.4616984690E+01+
*       7.0140941860E+01               0
GRID*               5048               02.0000000000E+014.1463545180E+01+
*       7.0328562634E+01               0
GRID*               5049               02.0000000000E+014.7423581156E+01+
*       6.9583288026E+01               0
GRID*               5050               02.0000000000E+014.5334389030E+01+
*       6.7043687181E+01               0
GRID*               5051               02.0000000000E+013.5959175796E+01+
*       7.0916170315E+01               0
GRID*               5052               02.0000000000E+013.4267939160E+01+
*       6.8813964797E+01               0
GRID*               5053               02.0000000000E+013.8671912718E+01+
*       7.0721295454E+01               0
GRID*               5054               02.0000000000E+013.9736160102E+01+
*       6.7994073834E+01               0
GRID*               5055               02.0000000000E+018.8876207971E+00+
*       1.3281974053E+01               0
GRID*               5056               02.0000000000E+011.3274556593E+01+
*       1.8165170893E+01               0
GRID*               5057               02.0000000000E+011.2173009412E+01+
*       2.0468054556E+01               0
GRID*               5058               02.0000000000E+011.4774762934E+01+
*       2.0768682729E+01               0
GRID*               5059               02.0000000000E+011.2517450808E+01+
*       1.6240830922E+01               0
GRID*               5060               02.0000000000E+011.0815809012E+01+
*       1.5269571778E+01               0
GRID*               5061               02.0000000000E+018.7446148566E+00+
*       1.5876944996E+01               0
GRID*               5062               02.0000000000E+018.4323622921E+00+
*       2.8478562463E+01               0
GRID*               5063               02.0000000000E+019.9544848679E+00+
*       3.0915474183E+01               0
GRID*               5064               02.0000000000E+017.7922112141E+00+
*       1.8395193646E+01               0
GRID*               5065               02.0000000000E+015.3809840322E+00+
*       2.3744657329E+01               0
GRID*               5066               02.0000000000E+016.5150781524E+00+
*       2.1204735051E+01               0
GRID*               5067               02.0000000000E+016.8838585115E+00+
*       2.6070756064E+01               0
GRID*               5068               02.0000000000E+019.6670407284E+00+
*       2.5891431930E+01               0
GRID*               5069               02.0000000000E+019.3956700095E+00+
*       2.0674084126E+01               0
GRID*               5070               02.0000000000E+011.0895876350E+01+
*       2.3277595962E+01               0
GRID*               5071               02.0000000000E+011.2444380131E+01+
*       2.5685402361E+01               0
GRID*               5072               02.0000000000E+011.6503639378E+01+
*       2.2738761913E+01               0
GRID*               5073               02.0000000000E+011.5258044169E+01+
*       2.5465650741E+01               0
GRID*               5074               02.0000000000E+011.8088467795E+01+
*       2.5132846262E+01               0
GRID*               5075               02.0000000000E+011.4029208548E+01+
*       2.8079486710E+01               0
GRID*               5076               02.0000000000E+011.1537132761E+01+
*       3.3362004473E+01               0
GRID*               5077               02.0000000000E+011.3098883832E+01+
*       3.5872200770E+01               0
GRID*               5078               02.0000000000E+011.2798192402E+01+
*       3.0745768619E+01               0
GRID*               5079               02.0000000000E+011.5611856441E+01+
*       3.0526016999E+01               0
GRID*               5080               02.0000000000E+011.8475208160E+01+
*       3.0299165548E+01               0
GRID*               5081               02.0000000000E+011.7244192015E+01+
*       3.2965447457E+01               0
GRID*               5082               02.0000000000E+011.9603747862E+01+
*       2.7655010304E+01               0
GRID*               5083               02.0000000000E+012.1236083437E+01+
*       3.0094440762E+01               0
GRID*               5084               02.0000000000E+011.4734161565E+01+
*       3.8379004315E+01               0
GRID*               5085               02.0000000000E+011.6333380949E+01+
*       4.0957237241E+01               0
GRID*               5086               02.0000000000E+011.6016118028E+01+
*       3.5699102454E+01               0
GRID*               5087               02.0000000000E+011.8879469747E+01+
*       3.5472251002E+01               0
GRID*               5088               02.0000000000E+012.8534342875E+01+
*       3.9963213120E+01               0
GRID*               5089               02.0000000000E+013.0709819076E+01+
*       4.2583758651E+01               0
GRID*               5090               02.0000000000E+012.6655569305E+01+
*       3.7314218257E+01               0
GRID*               5091               02.0000000000E+012.4708874904E+01+
*       3.4900118158E+01               0
GRID*               5092               02.0000000000E+012.5483793428E+01+
*       4.0364552840E+01               0
GRID*               5093               02.0000000000E+012.2321389430E+01+
*       4.0563027729E+01               0
GRID*               5094               02.0000000000E+012.4200163000E+01+
*       4.3212022593E+01               0
GRID*               5095               02.0000000000E+011.9344577381E+01+
*       4.0808201741E+01               0
GRID*               5096               02.0000000000E+011.8026562570E+01+
*       4.3559532982E+01               0
GRID*               5097               02.0000000000E+012.0628207809E+01+
*       3.7960731988E+01               0
GRID*               5098               02.0000000000E+012.2960136843E+01+
*       3.2411637172E+01               0
GRID*               5099               02.0000000000E+012.1856281796E+01+
*       3.5227076991E+01               0
GRID*               5100               02.0000000000E+011.9641592012E+01+
*       4.6212188376E+01               0
GRID*               5101               02.0000000000E+012.1346044941E+01+
*       4.8968530475E+01               0
GRID*               5102               02.0000000000E+012.2742211930E+01+
*       4.6166839581E+01               0
GRID*               5103               02.0000000000E+013.2792841534E+01+
*       4.5691764699E+01               0
GRID*               5104               02.0000000000E+013.5026441352E+01+
*       4.8365740547E+01               0
GRID*               5105               02.0000000000E+012.9445589456E+01+
*       4.6121553751E+01               0
GRID*               5106               02.0000000000E+012.5904615928E+01+
*       4.5968364692E+01               0
GRID*               5107               02.0000000000E+012.7987638386E+01+
*       4.9076370739E+01               0
GRID*               5108               02.0000000000E+012.2923232883E+01+
*       5.1664023161E+01               0
GRID*               5109               02.0000000000E+013.7683665726E+01+
*       5.0507086582E+01               0
GRID*               5110               02.0000000000E+013.9693674286E+01+
*       5.2930179607E+01               0
GRID*               5111               02.0000000000E+013.4185836288E+01+
*       5.1370905834E+01               0
GRID*               5112               02.0000000000E+012.5891714518E+01+
*       5.1716977129E+01               0
GRID*               5113               02.0000000000E+012.4368282542E+01+
*       5.4457818611E+01               0
GRID*               5114               02.0000000000E+013.1878377451E+01+
*       5.2199879131E+01               0
GRID*               5115               02.0000000000E+013.4535601826E+01+
*       5.4341225166E+01               0
GRID*               5116               02.0000000000E+012.9432688046E+01+
*       5.1870166189E+01               0
GRID*               5117               02.0000000000E+012.9782453583E+01+
*       5.4840485521E+01               0
GRID*               5118               02.0000000000E+014.1618181327E+01+
*       5.5077117330E+01               0
GRID*               5119               02.0000000000E+014.3453092393E+01+
*       5.7341173344E+01               0
GRID*               5120               02.0000000000E+013.8767567704E+01+
*       5.5659189592E+01               0
GRID*               5121               02.0000000000E+014.7066530312E+01+
*       6.1676382857E+01               0
GRID*               5122               02.0000000000E+014.6256880014E+01+
*       6.4329959730E+01               0
GRID*               5123               02.0000000000E+014.8950635794E+01+
*       6.3832456473E+01               0
GRID*               5124               02.0000000000E+014.5293442286E+01+
*       5.9525052743E+01               0
GRID*               5125               02.0000000000E+014.2532424639E+01+
*       5.9990006715E+01               0
GRID*               5126               02.0000000000E+013.6091857944E+01+
*       5.6158605062E+01               0
GRID*               5127               02.0000000000E+013.8016364985E+01+
*       5.8305542786E+01               0
GRID*               5128               02.0000000000E+013.3784399107E+01+
*       5.6987578360E+01               0
GRID*               5129               02.0000000000E+014.3450283548E+01+
*       6.4887613565E+01               0
GRID*               5130               02.0000000000E+014.1620811626E+01+
*       6.2635294860E+01               0
GRID*               5131               02.0000000000E+014.0698320642E+01+
*       6.5349022310E+01               0
GRID*               5132               02.0000000000E+013.9780461733E+01+
*       6.0451415460E+01               0
GRID*               5133               02.0000000000E+013.7104751972E+01+
*       6.0950830931E+01               0
GRID*               5134               02.0000000000E+013.1181560405E+01+
*       5.7320465780E+01               0
GRID*               5135               02.0000000000E+013.2737816523E+01+
*       5.9137845676E+01               0
GRID*               5136               02.0000000000E+012.8735870999E+01+
*       5.6990752838E+01               0
GRID*               5137               02.0000000000E+012.5921444364E+01+
*       5.7096025470E+01               0
GRID*               5138               02.0000000000E+012.7320551185E+01+
*       5.9576005729E+01               0
GRID*               5139               02.0000000000E+013.2528167501E+01+
*       6.6599260135E+01               0
GRID*               5140               02.0000000000E+013.0664344570E+01+
*       6.4350538989E+01               0
GRID*               5141               02.0000000000E+013.5204755980E+01+
*       6.6172101991E+01               0
GRID*               5142               02.0000000000E+013.7906688180E+01+
*       6.5741755130E+01               0
GRID*               5143               02.0000000000E+013.6166916520E+01+
*       6.3527050467E+01               0
GRID*               5144               02.0000000000E+012.8999341321E+01+
*       6.2107206873E+01               0
GRID*               5145               02.0000000000E+013.1799981070E+01+
*       6.1714065212E+01               0
GRID*               5146               02.0000000000E+013.4402819773E+01+
*       6.1381177792E+01               0
GRID*               5147               02.0000000000E+016.0556576719E+01+
*       1.1074368443E+02               0
GRID*               5148               02.0000000000E+015.8971296131E+01+
*       1.0817418593E+02               0
GRID*               5149               02.0000000000E+016.2159946920E+01+
*       1.1329500841E+02               0
GRID*               5150               02.0000000000E+016.3446014475E+01+
*       1.1062315308E+02               0
GRID*               5151               02.0000000000E+015.7369474959E+01+
*       1.0561992748E+02               0
GRID*               5152               02.0000000000E+015.5789258550E+01+
*       1.0305882566E+02               0
GRID*               5153               02.0000000000E+016.0240823101E+01+
*       1.0551757064E+02               0
GRID*               5154               02.0000000000E+015.4185943104E+01+
*       1.0052988898E+02               0
GRID*               5155               02.0000000000E+015.2616905288E+01+
*       9.7988157812E+01               0
GRID*               5156               02.0000000000E+015.7035686483E+01+
*       1.0043437551E+02               0
GRID*               5157               02.0000000000E+015.1036064792E+01+
*       9.5497948693E+01               0
GRID*               5158               02.0000000000E+014.9494018965E+01+
*       9.2978976966E+01               0
GRID*               5159               02.0000000000E+015.3851530541E+01+
*       9.5415229709E+01               0
GRID*               5160               02.0000000000E+014.7964190215E+01+
*       9.0523132689E+01               0
GRID*               5161               02.0000000000E+014.6464917505E+01+
*       8.8020749628E+01               0
GRID*               5162               02.0000000000E+015.0740861296E+01+
*       9.0469176313E+01               0
GRID*               5163               02.0000000000E+014.3553512690E+01+
*       8.3078151908E+01               0
GRID*               5164               02.0000000000E+014.4891276871E+01+
*       8.0611229130E+01               0
GRID*               5165               02.0000000000E+014.5010258684E+01+
*       8.5576746709E+01               0
GRID*               5166               02.0000000000E+014.7756373725E+01+
*       8.5569329116E+01               0
GRID*               5167               02.0000000000E+018.3173950224E+01+
*       1.4738134884E+02               0
GRID*               5168               02.0000000000E+018.6204253254E+01+
*       1.4738134884E+02               0
GRID*               5169               02.0000000000E+018.1551346216E+01+
*       1.4477948798E+02               0
GRID*               5170               02.0000000000E+018.2960769216E+01+
*       1.4218112255E+02               0
GRID*               5171               02.0000000000E+017.9982396802E+01+
*       1.4219791286E+02               0
GRID*               5172               02.0000000000E+017.5327216464E+01+
*       1.3425690009E+02               0
GRID*               5173               02.0000000000E+017.6785983065E+01+
*       1.3149376671E+02               0
GRID*               5174               02.0000000000E+017.3707392050E+01+
*       1.3149629980E+02               0
GRID*               5175               02.0000000000E+017.6912426743E+01+
*       1.3691001415E+02               0
GRID*               5176               02.0000000000E+017.8405432904E+01+
*       1.3958260436E+02               0
GRID*               5177               02.0000000000E+017.9898813641E+01+
*       1.3692695721E+02               0
GRID*               5178               02.0000000000E+017.2077390878E+01+
*       1.2884142933E+02               0
GRID*               5179               02.0000000000E+017.0336388971E+01+
*       1.2617930293E+02               0
GRID*               5180               02.0000000000E+017.3425156744E+01+
*       1.2607104002E+02               0
GRID*               5181               02.0000000000E+016.3756911771E+01+
*       1.1586613176E+02               0
GRID*               5182               02.0000000000E+016.5388359856E+01+
*       1.1841129621E+02               0
GRID*               5183               02.0000000000E+016.6680832761E+01+
*       1.1571964151E+02               0
GRID*               5184               02.0000000000E+016.8694019739E+01+
*       1.2356508376E+02               0
GRID*               5185               02.0000000000E+016.7008082743E+01+
*       1.2099302993E+02               0
GRID*               5186               02.0000000000E+016.9998217842E+01+
*       1.2083685979E+02               0
GRID*               5187               02.0000000000E+017.3595540055E+01+
*       6.2058729222E+01               0
GRID*               5188               02.0000000000E+017.6001351094E+01+
*       6.4024872340E+01               0
GRID*               5189               02.0000000000E+017.6495598639E+01+
*       6.1090045358E+01               0
GRID*               5190               02.0000000000E+017.1362591037E+01+
*       6.0051413036E+01               0
GRID*               5191               02.0000000000E+017.1787391006E+01+
*       5.7261195854E+01               0
GRID*               5192               02.0000000000E+016.9060194443E+01+
*       5.8188706650E+01               0
GRID*               5193               02.0000000000E+017.0868343492E+01+
*       6.2986240018E+01               0
GRID*               5194               02.0000000000E+016.8061485666E+01+
*       6.3727203566E+01               0
GRID*               5195               02.0000000000E+017.0294434684E+01+
*       6.5734519752E+01               0
GRID*               5196               02.0000000000E+016.5453026636E+01+
*       6.4533292853E+01               0
GRID*               5197               02.0000000000E+016.2795553980E+01+
*       6.5193583232E+01               0
GRID*               5198               02.0000000000E+016.4830104201E+01+
*       6.7135773679E+01               0
GRID*               5199               02.0000000000E+016.6026935444E+01+
*       6.1785013119E+01               0
GRID*               5200               02.0000000000E+016.6910742822E+01+
*       5.6356410784E+01               0
GRID*               5201               02.0000000000E+016.7212128887E+01+
*       5.3643244752E+01               0
GRID*               5202               02.0000000000E+016.4637877298E+01+
*       5.4601166067E+01               0
GRID*               5203               02.0000000000E+016.6485942854E+01+
*       5.9146627966E+01               0
GRID*               5204               02.0000000000E+016.3877483824E+01+
*       5.9952717253E+01               0
GRID*               5205               02.0000000000E+016.0284843130E+01+
*       6.5887116215E+01               0
GRID*               5206               02.0000000000E+015.7733931488E+01+
*       6.6503680783E+01               0
GRID*               5207               02.0000000000E+015.9621719903E+01+
*       6.8412628625E+01               0
GRID*               5208               02.0000000000E+016.0907765565E+01+
*       6.3284635389E+01               0
GRID*               5209               02.0000000000E+016.1470450158E+01+
*       6.0816075770E+01               0
GRID*               5210               02.0000000000E+015.8959739309E+01+
*       6.1509608753E+01               0
GRID*               5211               02.0000000000E+016.1929457568E+01+
*       5.8177690616E+01               0
GRID*               5212               02.0000000000E+016.2480414685E+01+
*       5.2952136252E+01               0
GRID*               5213               02.0000000000E+016.2602958444E+01+
*       5.0198373228E+01               0
GRID*               5214               02.0000000000E+016.0144109768E+01+
*       5.1262509445E+01               0
GRID*               5215               02.0000000000E+016.2179028621E+01+
*       5.5665302284E+01               0
GRID*               5216               02.0000000000E+015.9771994956E+01+
*       5.6528660801E+01               0
GRID*               5217               02.0000000000E+015.0133760870E+01+
*       6.8416802682E+01               0
GRID*               5218               02.0000000000E+014.9416356530E+01+
*       7.1514057361E+01               0
GRID*               5219               02.0000000000E+015.7445613251E+01+
*       4.9796153585E+01               0
GRID*               5220               02.0000000000E+015.7970482526E+01+
*       4.6704192296E+01               0
GRID*               5221               02.0000000000E+015.5384983994E+01+
*       5.3641219657E+01               0
GRID*               5222               02.0000000000E+015.3888643234E+01+
*       5.6205536272E+01               0
GRID*               5223               02.0000000000E+015.7323069492E+01+
*       5.2549916608E+01               0
GRID*               5224               02.0000000000E+015.8083480511E+01+
*       5.5107575517E+01               0
GRID*               5225               02.0000000000E+015.0768348685E+01+
*       6.5850813370E+01               0
GRID*               5226               02.0000000000E+015.1577998983E+01+
*       6.3197236497E+01               0
GRID*               5227               02.0000000000E+015.2761124059E+01+
*       6.7781582706E+01               0
GRID*               5228               02.0000000000E+015.4598672252E+01+
*       6.9688382605E+01               0
GRID*               5229               02.0000000000E+015.5233260067E+01+
*       6.7122393294E+01               0
GRID*               5230               02.0000000000E+015.5896383295E+01+
*       6.4596880883E+01               0
GRID*               5231               02.0000000000E+015.2289202071E+01+
*       6.0741734722E+01               0
GRID*               5232               02.0000000000E+015.4106914962E+01+
*       6.2760091620E+01               0
GRID*               5233               02.0000000000E+015.3225004752E+01+
*       5.8258391912E+01               0
GRID*               5234               02.0000000000E+015.5481756532E+01+
*       5.8251734205E+01               0
GRID*               5235               02.0000000000E+015.7833909458E+01+
*       5.7619963849E+01               0
GRID*               5236               02.0000000000E+015.7170270976E+01+
*       5.9672819489E+01               0
GRID*               5237               02.0000000000E+015.6607586383E+01+
*       6.2141379109E+01               0
GRID*               5238               02.0000000000E+015.5062973668E+01+
*       9.2781481572E+01               0
GRID*               5239               02.0000000000E+015.6643814164E+01+
*       9.5271690691E+01               0
GRID*               5240               02.0000000000E+015.6265653575E+01+
*       9.0221107931E+01               0
GRID*               5241               02.0000000000E+015.9003048576E+01+
*       9.0012988210E+01               0
GRID*               5242               02.0000000000E+015.7413444860E+01+
*       8.7596153586E+01               0
GRID*               5243               02.0000000000E+015.3473369952E+01+
*       9.0364646948E+01               0
GRID*               5244               02.0000000000E+015.1943541202E+01+
*       8.7908802671E+01               0
GRID*               5245               02.0000000000E+015.0433792777E+01+
*       8.5563608503E+01               0
GRID*               5246               02.0000000000E+014.8979133956E+01+
*       8.3119605584E+01               0
GRID*               5247               02.0000000000E+015.3166301434E+01+
*       8.5459079139E+01               0
GRID*               5248               02.0000000000E+015.8534352446E+01+
*       8.5103946950E+01               0
GRID*               5249               02.0000000000E+016.1210798291E+01+
*       8.4790378311E+01               0
GRID*               5250               02.0000000000E+015.9594310876E+01+
*       8.2506291396E+01               0
GRID*               5251               02.0000000000E+015.5796957444E+01+
*       8.5312066671E+01               0
GRID*               5252               02.0000000000E+015.4287209019E+01+
*       8.2966872503E+01               0
GRID*               5253               02.0000000000E+016.4060134257E+01+
*       6.9818353756E+01               0
GRID*               5254               02.0000000000E+016.6717606913E+01+
*       6.9158063376E+01               0
GRID*               5255               02.0000000000E+016.3300970335E+01+
*       7.2383306047E+01               0
GRID*               5256               02.0000000000E+016.2426731833E+01+
*       7.4983356813E+01               0
GRID*               5257               02.0000000000E+016.5073398466E+01+
*       7.4440694220E+01               0
GRID*               5258               02.0000000000E+016.1413467624E+01+
*       7.0361016349E+01               0
GRID*               5259               02.0000000000E+015.8862555981E+01+
*       7.0977580917E+01               0
GRID*               5260               02.0000000000E+016.0600025866E+01+
*       8.0044280319E+01               0
GRID*               5261               02.0000000000E+015.7923580020E+01+
*       8.0357848958E+01               0
GRID*               5262               02.0000000000E+016.1564227487E+01+
*       7.7468291433E+01               0
GRID*               5263               02.0000000000E+015.9791799357E+01+
*       7.5410903261E+01               0
GRID*               5264               02.0000000000E+016.3234958343E+01+
*       7.9616733871E+01               0
GRID*               5265               02.0000000000E+015.8176655809E+01+
*       7.3424417448E+01               0
GRID*               5266               02.0000000000E+015.7314151463E+01+
*       7.5909352068E+01               0
GRID*               5267               02.0000000000E+015.6384908088E+01+
*       7.1476029725E+01               0
GRID*               5268               02.0000000000E+015.3912772079E+01+
*       7.2135219137E+01               0
GRID*               5269               02.0000000000E+015.6435231146E+01+
*       7.8190936497E+01               0
GRID*               5270               02.0000000000E+015.4820087598E+01+
*       7.6204450685E+01               0
GRID*               5271               02.0000000000E+015.5429516155E+01+
*       8.0652947574E+01               0
GRID*               5272               02.0000000000E+015.2798860144E+01+
*       8.0799960042E+01               0
GRID*               5273               02.0000000000E+014.7630405378E+01+
*       8.0777168173E+01               0
GRID*               5274               02.0000000000E+014.6219967345E+01+
*       7.8263071106E+01               0
GRID*               5275               02.0000000000E+015.0307824430E+01+
*       8.0771447560E+01               0
GRID*               5276               02.0000000000E+015.1450131566E+01+
*       7.8457522631E+01               0
GRID*               5277               02.0000000000E+014.7832636333E+01+
*       7.5554776427E+01               0
GRID*               5278               02.0000000000E+014.9132013983E+01+
*       7.3741432128E+01               0
GRID*               5279               02.0000000000E+015.1842193697E+01+
*       7.2574946784E+01               0
GRID*               5280               02.0000000000E+015.0258473501E+01+
*       7.6615665850E+01               0
GRID*               5281               02.0000000000E+015.2749509216E+01+
*       7.6644178332E+01               0
GRID*               5282               02.0000000000E+015.3628429533E+01+
*       7.4362593904E+01               0
GRID*               5283               02.0000000000E+015.8292432339E+01+
*       9.7734223879E+01               0
GRID*               5284               02.0000000000E+015.9503875466E+01+
*       9.5100475743E+01               0
GRID*               5285               02.0000000000E+015.9895747785E+01+
*       1.0026316056E+02               0
GRID*               5286               02.0000000000E+016.1535313936E+01+
*       1.0280774973E+02               0
GRID*               5287               02.0000000000E+016.2792059792E+01+
*       1.0010759810E+02               0
GRID*               5288               02.0000000000E+016.3137135108E+01+
*       1.0536200819E+02               0
GRID*               5289               02.0000000000E+016.4738798382E+01+
*       1.0791723119E+02               0
GRID*               5290               02.0000000000E+016.6033289216E+01+
*       1.0520741028E+02               0
GRID*               5291               02.0000000000E+016.9582419748E+01+
*       1.1552496982E+02               0
GRID*               5292               02.0000000000E+016.7950971663E+01+
*       1.1297980537E+02               0
GRID*               5293               02.0000000000E+017.1266358833E+01+
*       1.1801755696E+02               0
GRID*               5294               02.0000000000E+017.2536497735E+01+
*       1.1527772081E+02               0
GRID*               5295               02.0000000000E+016.6342168583E+01+
*       1.1046855517E+02               0
GRID*               5296               02.0000000000E+016.9243755570E+01+
*       1.1027388348E+02               0
GRID*               5297               02.0000000000E+017.2952295829E+01+
*       1.2058961079E+02               0
GRID*               5298               02.0000000000E+017.4765456655E+01+
*       1.2313920087E+02               0
GRID*               5299               02.0000000000E+017.6033597646E+01+
*       1.2031989803E+02               0
GRID*               5300               02.0000000000E+017.6506458561E+01+
*       1.2580132727E+02               0
GRID*               5301               02.0000000000E+017.8611118014E+01+
*       1.2861401852E+02               0
GRID*               5302               02.0000000000E+017.9951417924E+01+
*       1.2568217937E+02               0
GRID*               5303               02.0000000000E+018.0230942428E+01+
*       1.3137461881E+02               0
GRID*               5304               02.0000000000E+018.1343863635E+01+
*       1.3442651931E+02               0
GRID*               5305               02.0000000000E+018.2836869796E+01+
*       1.3709910952E+02               0
GRID*               5306               02.0000000000E+018.3168998584E+01+
*       1.3154677112E+02               0
GRID*               5307               02.0000000000E+018.4280417071E+01+
*       1.3957131929E+02               0
GRID*               5308               02.0000000000E+018.5725467064E+01+
*       1.3707088139E+02               0
GRID*               5309               02.0000000000E+018.5849366484E+01+
*       1.4215289442E+02               0
GRID*               5310               02.0000000000E+018.9138147679E+01+
*       1.4731228434E+02               0
GRID*               5311               02.0000000000E+019.2168450709E+01+
*       1.4731228434E+02               0
GRID*               5312               02.0000000000E+018.7463613054E+01+
*       1.4469363318E+02               0
GRID*               5313               02.0000000000E+018.8783260908E+01+
*       1.4208382992E+02               0
GRID*               5314               02.0000000000E+016.6918445866E+01+
*       7.6558208250E+01               0
GRID*               5315               02.0000000000E+016.7792684369E+01+
*       7.3958157483E+01               0
GRID*               5316               02.0000000000E+016.5972964837E+01+
*       7.9175261397E+01               0
GRID*               5317               02.0000000000E+016.8692250740E+01+
*       7.8692724661E+01               0
GRID*               5318               02.0000000000E+016.9508025868E+01+
*       6.8606923029E+01               0
GRID*               5319               02.0000000000E+017.2314883694E+01+
*       6.7865959481E+01               0
GRID*               5320               02.0000000000E+016.8738055923E+01+
*       7.1289503106E+01               0
GRID*               5321               02.0000000000E+017.0583103324E+01+
*       7.3407017136E+01               0
GRID*               5322               02.0000000000E+016.0704386109E+01+
*       9.2371655294E+01               0
GRID*               5323               02.0000000000E+016.2353004283E+01+
*       9.4834188482E+01               0
GRID*               5324               02.0000000000E+016.1852177394E+01+
*       8.9746700950E+01               0
GRID*               5325               02.0000000000E+016.4651069984E+01+
*       8.9377528148E+01               0
GRID*               5326               02.0000000000E+016.2949732451E+01+
*       8.7018861063E+01               0
GRID*               5327               02.0000000000E+016.5008763216E+01+
*       8.1751250282E+01               0
GRID*               5328               02.0000000000E+016.4009690882E+01+
*       8.4421205509E+01               0
GRID*               5329               02.0000000000E+016.6747697376E+01+
*       8.3979733035E+01               0
GRID*               5330               02.0000000000E+018.8735901504E+01+
*       7.3111261843E+01               0
GRID*               5331               02.0000000000E+019.1251327651E+01+
*       7.4928244365E+01               0
GRID*               5332               02.0000000000E+019.1599454381E+01+
*       7.2126186247E+01               0
GRID*               5333               02.0000000000E+018.6103792494E+01+
*       7.4274420836E+01               0
GRID*               5334               02.0000000000E+018.3569828700E+01+
*       7.5232281657E+01               0
GRID*               5335               02.0000000000E+018.5853810980E+01+
*       7.6871180782E+01               0
GRID*               5336               02.0000000000E+018.6451919224E+01+
*       7.1472362718E+01               0
GRID*               5337               02.0000000000E+018.6548170568E+01+
*       6.8564254121E+01               0
GRID*               5338               02.0000000000E+018.3916061559E+01+
*       6.9727413114E+01               0
GRID*               5339               02.0000000000E+017.1423193187E+01+
*       7.8191601426E+01               0
GRID*               5340               02.0000000000E+017.0477712158E+01+
*       8.0808654573E+01               0
GRID*               5341               02.0000000000E+017.4153779626E+01+
*       7.7771737497E+01               0
GRID*               5342               02.0000000000E+017.5816883204E+01+
*       7.9787946765E+01               0
GRID*               5343               02.0000000000E+017.6762008226E+01+
*       7.7252152923E+01               0
GRID*               5344               02.0000000000E+017.2368318208E+01+
*       7.5655807585E+01               0
GRID*               5345               02.0000000000E+017.3313689763E+01+
*       7.2987153207E+01               0
GRID*               5346               02.0000000000E+017.9098189945E+01+
*       7.7146776356E+01               0
GRID*               5347               02.0000000000E+017.7435086367E+01+
*       7.5130567089E+01               0
GRID*               5348               02.0000000000E+018.1545557636E+01+
*       7.6427116063E+01               0
GRID*               5349               02.0000000000E+018.1795539150E+01+
*       7.3830356116E+01               0
GRID*               5350               02.0000000000E+018.0872479495E+01+
*       7.8548701897E+01               0
GRID*               5351               02.0000000000E+017.5561509310E+01+
*       6.7386423626E+01               0
GRID*               5352               02.0000000000E+017.4775100494E+01+
*       7.0258826903E+01               0
GRID*               5353               02.0000000000E+017.8461567894E+01+
*       6.6417739762E+01               0
GRID*               5354               02.0000000000E+018.1017019506E+01+
*       6.8299297783E+01               0
GRID*               5355               02.0000000000E+018.1456861291E+01+
*       6.4937746496E+01               0
GRID*               5356               02.0000000000E+018.0920768162E+01+
*       7.1207406379E+01               0
GRID*               5357               02.0000000000E+017.6560315378E+01+
*       7.2507617352E+01               0
GRID*               5358               02.0000000000E+017.8896497098E+01+
*       7.2402240785E+01               0
GRID*               5359               02.0000000000E+016.9559679354E+01+
*       8.3473411532E+01               0
GRID*               5360               02.0000000000E+016.8560607019E+01+
*       8.6143366759E+01               0
GRID*               5361               02.0000000000E+017.2290621801E+01+
*       8.2972288297E+01               0
GRID*               5362               02.0000000000E+017.5028058267E+01+
*       8.2350571741E+01               0
GRID*               5363               02.0000000000E+017.7636286867E+01+
*       8.1830987167E+01               0
GRID*               5364               02.0000000000E+017.4110025464E+01+
*       8.5015328700E+01               0
GRID*               5365               02.0000000000E+017.3304009137E+01+
*       8.7791741703E+01               0
GRID*               5366               02.0000000000E+017.0401356419E+01+
*       8.8463314225E+01               0
GRID*               5367               02.0000000000E+017.2332776558E+01+
*       9.0618010672E+01               0
GRID*               5368               02.0000000000E+017.6041445603E+01+
*       8.7170025147E+01               0
GRID*               5369               02.0000000000E+016.7589374441E+01+
*       8.8969635728E+01               0
GRID*               5370               02.0000000000E+016.6491819384E+01+
*       9.1697475615E+01               0
GRID*               5371               02.0000000000E+016.7387691058E+01+
*       1.0248852891E+02               0
GRID*               5372               02.0000000000E+016.8989354331E+01+
*       1.0504375191E+02               0
GRID*               5373               02.0000000000E+016.5755888365E+01+
*       9.9856875497E+01               0
GRID*               5374               02.0000000000E+016.4116322213E+01+
*       9.7312286324E+01               0
GRID*               5375               02.0000000000E+016.8711953479E+01+
*       9.9693217127E+01               0
GRID*               5376               02.0000000000E+017.2019884426E+01+
*       9.9389027228E+01               0
GRID*               5377               02.0000000000E+017.0388081733E+01+
*       9.6757373817E+01               0
GRID*               5378               02.0000000000E+016.5316832856E+01+
*       9.4583465875E+01               0
GRID*               5379               02.0000000000E+016.8255137313E+01+
*       9.4175573456E+01               0
GRID*               5380               02.0000000000E+017.1563068260E+01+
*       9.3871383556E+01               0
GRID*               5381               02.0000000000E+017.4465720978E+01+
*       9.3199811034E+01               0
GRID*               5382               02.0000000000E+018.0266337330E+01+
*       8.1113186463E+01               0
GRID*               5383               02.0000000000E+018.2713705020E+01+
*       8.0393526170E+01               0
GRID*               5384               02.0000000000E+017.0513172300E+01+
*       1.0757818489E+02               0
GRID*               5385               02.0000000000E+017.2121975381E+01+
*       1.1008943509E+02               0
GRID*               5386               02.0000000000E+017.9477512393E+01+
*       8.3675811440E+01               0
GRID*               5387               02.0000000000E+017.8765649608E+01+
*       8.6363698183E+01               0
GRID*               5388               02.0000000000E+018.1395700070E+01+
*       8.5645897479E+01               0
GRID*               5389               02.0000000000E+017.1867574141E+01+
*       1.0485930352E+02               0
GRID*               5390               02.0000000000E+017.4714640187E+01+
*       1.0484510392E+02               0
GRID*               5391               02.0000000000E+017.3190822217E+01+
*       1.0231067094E+02               0
GRID*               5392               02.0000000000E+017.7959633280E+01+
*       8.9140111186E+01               0
GRID*               5393               02.0000000000E+017.7278721764E+01+
*       9.1858567975E+01               0
GRID*               5394               02.0000000000E+018.0002925769E+01+
*       9.1052241012E+01               0
GRID*               5395               02.0000000000E+017.4866950471E+01+
*       9.9374827629E+01               0
GRID*               5396               02.0000000000E+017.7355281758E+01+
*       1.0035066732E+02               0
GRID*               5397               02.0000000000E+017.6184343967E+01+
*       9.7429023613E+01               0
GRID*               5398               02.0000000000E+017.6509013466E+01+
*       9.5111940859E+01               0
GRID*               5399               02.0000000000E+017.8997344753E+01+
*       9.6087780555E+01               0
GRID*               5400               02.0000000000E+017.9907935265E+01+
*       1.0021163370E+02               0
GRID*               5401               02.0000000000E+018.2026620591E+01+
*       9.9671031775E+01               0
GRID*               5402               02.0000000000E+018.0791360580E+01+
*       9.7864261381E+01               0
GRID*               5403               02.0000000000E+017.8590541769E+01+
*       1.0215743772E+02               0
GRID*               5404               02.0000000000E+017.7490929975E+01+
*       1.0459685904E+02               0
GRID*               5405               02.0000000000E+018.0043583482E+01+
*       1.0445782541E+02               0
GRID*               5406               02.0000000000E+017.6167681899E+01+
*       1.0714549162E+02               0
GRID*               5407               02.0000000000E+017.3736628422E+01+
*       1.1249678688E+02               0
GRID*               5408               02.0000000000E+017.5420567507E+01+
*       1.1498937402E+02               0
GRID*               5409               02.0000000000E+017.5006045152E+01+
*       1.0980108829E+02               0
GRID*               5410               02.0000000000E+017.7782334941E+01+
*       1.0955284341E+02               0
GRID*               5411               02.0000000000E+018.1116030080E+01+
*       9.5547178628E+01               0
GRID*               5412               02.0000000000E+018.3707375683E+01+
*       9.4784959350E+01               0
GRID*               5413               02.0000000000E+018.1913359856E+01+
*       9.3008478523E+01               0
GRID*               5414               02.0000000000E+018.5316330927E+01+
*       7.9553248583E+01               0
GRID*               5415               02.0000000000E+018.7850294721E+01+
*       7.8595387762E+01               0
GRID*               5416               02.0000000000E+018.4710188762E+01+
*       8.2117733149E+01               0
GRID*               5417               02.0000000000E+018.4079899681E+01+
*       8.4846591322E+01               0
GRID*               5418               02.0000000000E+018.6682525588E+01+
*       8.4006313735E+01               0
GRID*               5419               02.0000000000E+018.3368036896E+01+
*       8.7534478065E+01               0
GRID*               5420               02.0000000000E+018.2594271372E+01+
*       9.0290021734E+01               0
GRID*               5421               02.0000000000E+018.5278470983E+01+
*       8.9490715576E+01               0
GRID*               5422               02.0000000000E+018.2705127762E+01+
*       1.0406768363E+02               0
GRID*               5423               02.0000000000E+018.1605515968E+01+
*       1.0650710495E+02               0
GRID*               5424               02.0000000000E+018.5181307984E+01+
*       1.0362532705E+02               0
GRID*               5425               02.0000000000E+018.6876211830E+01+
*       1.0557797177E+02               0
GRID*               5426               02.0000000000E+018.7790459567E+01+
*       1.0308633565E+02               0
GRID*               5427               02.0000000000E+018.3619375498E+01+
*       1.0157604751E+02               0
GRID*               5428               02.0000000000E+018.4502800814E+01+
*       9.9228675193E+01               0
GRID*               5429               02.0000000000E+018.5353451691E+01+
*       9.6813200915E+01               0
GRID*               5430               02.0000000000E+018.6150781467E+01+
*       9.4274500810E+01               0
GRID*               5431               02.0000000000E+018.6946206598E+01+
*       9.8718216654E+01               0
GRID*               5432               02.0000000000E+019.0220893397E+01+
*       1.0254947555E+02               0
GRID*               5433               02.0000000000E+019.2147050210E+01+
*       1.0437555564E+02               0
GRID*               5434               02.0000000000E+019.2882580193E+01+
*       1.0188605081E+02               0
GRID*               5435               02.0000000000E+018.8525989550E+01+
*       1.0059683083E+02               0
GRID*               5436               02.0000000000E+018.9376640428E+01+
*       9.8181356551E+01               0
GRID*               5437               02.0000000000E+018.7463850757E+01+
*       9.1593720092E+01               0
GRID*               5438               02.0000000000E+018.8237616281E+01+
*       8.8838176423E+01               0
GRID*               5439               02.0000000000E+018.9109926766E+01+
*       9.3621961657E+01               0
GRID*               5440               02.0000000000E+018.8692211258E+01+
*       8.5760132600E+01               0
GRID*               5441               02.0000000000E+018.9322500339E+01+
*       8.3031274428E+01               0
GRID*               5442               02.0000000000E+019.0877591033E+01+
*       8.7863137116E+01               0
GRID*               5443               02.0000000000E+019.0543511692E+01+
*       7.7696181761E+01               0
GRID*               5444               02.0000000000E+019.3407064568E+01+
*       7.6711106165E+01               0
GRID*               5445               02.0000000000E+019.0006031639E+01+
*       8.0378249561E+01               0
GRID*               5446               02.0000000000E+019.2015717309E+01+
*       8.2132068427E+01               0
GRID*               5447               02.0000000000E+019.5184771687E+01+
*       1.0108109508E+02               0
GRID*               5448               02.0000000000E+019.3258614874E+01+
*       9.9255014992E+01               0
GRID*               5449               02.0000000000E+019.7780403184E+01+
*       1.0022502963E+02               0
GRID*               5450               02.0000000000E+019.7780403184E+01+
*       9.7225029628E+01               0
GRID*               5451               02.0000000000E+019.7404368503E+01+
*       1.0285606545E+02               0
GRID*               5452               02.0000000000E+019.1522387881E+01+
*       9.7949604013E+01               0
GRID*               5453               02.0000000000E+019.3824579375E+01+
*       9.7144648277E+01               0
GRID*               5454               02.0000000000E+018.9942604929E+01+
*       9.6070989837E+01               0
GRID*               5455               02.0000000000E+019.1255674219E+01+
*       9.3390209119E+01               0
GRID*               5456               02.0000000000E+019.6349624305E+01+
*       7.8739521780E+01               0
GRID*               5457               02.0000000000E+019.7057440264E+01+
*       7.5971584385E+01               0
GRID*               5458               02.0000000000E+019.5596767283E+01+
*       9.5799366396E+01               0
GRID*               5459               02.0000000000E+019.3860540290E+01+
*       9.4493955417E+01               0
GRID*               5460               02.0000000000E+019.7816364099E+01+
*       9.4574336768E+01               0
GRID*               5461               02.0000000000E+019.7816364099E+01+
*       9.1574336768E+01               0
GRID*               5462               02.0000000000E+019.7779595486E+01+
*       8.5807083506E+01               0
GRID*               5463               02.0000000000E+019.7779595486E+01+
*       8.8807083506E+01               0
GRID*               5464               02.0000000000E+019.7916705247E+01+
*       8.0449028621E+01               0
GRID*               5465               02.0000000000E+019.7916705247E+01+
*       8.3449028621E+01               0
GRID*               5466               02.0000000000E+019.4266329552E+01+
*       8.1188550401E+01               0
GRID*               5467               02.0000000000E+019.5696300734E+01+
*       8.5256112127E+01               0
GRID*               5468               02.0000000000E+019.3582798252E+01+
*       8.3841575267E+01               0
GRID*               5469               02.0000000000E+019.3445688491E+01+
*       8.6199630153E+01               0
GRID*               5470               02.0000000000E+019.5595959585E+01+
*       9.0381420274E+01               0
GRID*               5471               02.0000000000E+019.2991093514E+01+
*       8.9277673976E+01               0
GRID*               5472               02.0000000000E+019.3027862127E+01+
*       9.2044927237E+01               0
GRID*               5473               02.0000000000E+018.0614489880E+01+
*       1.0913981103E+02               0
GRID*               5474               02.0000000000E+018.3276034159E+01+
*       1.0874966925E+02               0
GRID*               5475               02.0000000000E+017.9452853132E+01+
*       1.1179540771E+02               0
GRID*               5476               02.0000000000E+017.7183219784E+01+
*       1.1738008792E+02               0
GRID*               5477               02.0000000000E+017.8996380610E+01+
*       1.1992967800E+02               0
GRID*               5478               02.0000000000E+017.8383350471E+01+
*       1.1459915399E+02               0
GRID*               5479               02.0000000000E+018.1215505409E+01+
*       1.1418612161E+02               0
GRID*               5480               02.0000000000E+018.0935618881E+01+
*       1.2235533742E+02               0
GRID*               5481               02.0000000000E+018.3040278334E+01+
*       1.2516802867E+02               0
GRID*               5482               02.0000000000E+018.2085241019E+01+
*       1.1941552731E+02               0
GRID*               5483               02.0000000000E+018.5010779164E+01+
*       1.1885750954E+02               0
GRID*               5484               02.0000000000E+018.3071540892E+01+
*       1.1643185012E+02               0
GRID*               5485               02.0000000000E+018.6023234626E+01+
*       1.0819083858E+02               0
GRID*               5486               02.0000000000E+018.8632386209E+01+
*       1.0765184718E+02               0
GRID*               5487               02.0000000000E+018.5032208538E+01+
*       1.1082354466E+02               0
GRID*               5488               02.0000000000E+018.4141043554E+01+
*       1.1362810384E+02               0
GRID*               5489               02.0000000000E+018.6888244021E+01+
*       1.1306927317E+02               0
GRID*               5490               02.0000000000E+019.5786210087E+01+
*       1.1501743740E+02               0
GRID*               5491               02.0000000000E+019.3729715548E+01+
*       1.1344087464E+02               0
GRID*               5492               02.0000000000E+019.3544119390E+01+
*       1.1583300558E+02               0
GRID*               5493               02.0000000000E+019.7985903123E+01+
*       1.1331265323E+02               0
GRID*               5494               02.0000000000E+019.7985903123E+01+
*       1.1031265323E+02               0
GRID*               5495               02.0000000000E+019.7800306964E+01+
*       1.1570478417E+02               0
GRID*               5496               02.0000000000E+019.7800306964E+01+
*       1.1870478417E+02               0
GRID*               5497               02.0000000000E+019.7404368503E+01+
*       1.0585606545E+02               0
GRID*               5498               02.0000000000E+019.2324299283E+01+
*       1.1161774044E+02               0
GRID*               5499               02.0000000000E+019.4566389980E+01+
*       1.1080217226E+02               0
GRID*               5500               02.0000000000E+019.0470191360E+01+
*       1.0962187602E+02               0
GRID*               5501               02.0000000000E+019.1323168564E+01+
*       1.0700900921E+02               0
GRID*               5502               02.0000000000E+018.9633516928E+01+
*       1.1226057841E+02               0
GRID*               5503               02.0000000000E+019.3984855361E+01+
*       1.0634558448E+02               0
GRID*               5504               02.0000000000E+019.6580486857E+01+
*       1.0848951903E+02               0
GRID*               5505               02.0000000000E+019.7824482359E+01+
*       1.2151880331E+02               0
GRID*               5506               02.0000000000E+019.7824482359E+01+
*       1.2451880331E+02               0
GRID*               5507               02.0000000000E+019.5624789323E+01+
*       1.2022358748E+02               0
GRID*               5508               02.0000000000E+019.2993051486E+01+
*       1.1901809697E+02               0
GRID*               5509               02.0000000000E+019.3017226881E+01+
*       1.2183211611E+02               0
GRID*               5510               02.0000000000E+019.0936556948E+01+
*       1.1744153421E+02               0
GRID*               5511               02.0000000000E+018.8742351944E+01+
*       1.1506513759E+02               0
GRID*               5512               02.0000000000E+018.8191284040E+01+
*       1.1825022897E+02               0
GRID*               5513               02.0000000000E+018.7204984167E+01+
*       1.2123390616E+02               0
GRID*               5514               02.0000000000E+019.1263565679E+01+
*       1.2317450934E+02               0
GRID*               5515               02.0000000000E+019.3895303516E+01+
*       1.2437999985E+02               0
GRID*               5516               02.0000000000E+018.9101109466E+01+
*       1.2345100149E+02               0
GRID*               5517               02.0000000000E+018.5920604589E+01+
*       1.2405828206E+02               0
GRID*               5518               02.0000000000E+018.9979186101E+01+
*       1.2599888524E+02               0
GRID*               5519               02.0000000000E+019.7411274718E+01+
*       1.3280582963E+02               0
GRID*               5520               02.0000000000E+019.7411274718E+01+
*       1.3580582963E+02               0
GRID*               5521               02.0000000000E+019.5213919853E+01+
*       1.3098946030E+02               0
GRID*               5522               02.0000000000E+019.3373498596E+01+
*       1.2912677882E+02               0
GRID*               5523               02.0000000000E+019.2982128180E+01+
*       1.3174897778E+02               0
GRID*               5524               02.0000000000E+019.7802645134E+01+
*       1.3018363067E+02               0
GRID*               5525               02.0000000000E+019.7802645134E+01+
*       1.2718363067E+02               0
GRID*               5526               02.0000000000E+019.1641674618E+01+
*       1.2780434469E+02               0
GRID*               5527               02.0000000000E+018.9479218406E+01+
*       1.2808083684E+02               0
GRID*               5528               02.0000000000E+019.3873466291E+01+
*       1.2704482721E+02               0
GRID*               5529               02.0000000000E+019.5627127493E+01+
*       1.2570243399E+02               0
GRID*               5530               02.0000000000E+018.4936403633E+01+
*       1.2738512401E+02               0
GRID*               5531               02.0000000000E+018.4556975854E+01+
*       1.2964233203E+02               0
GRID*               5532               02.0000000000E+018.5669897060E+01+
*       1.3269423253E+02               0
GRID*               5533               02.0000000000E+018.7437302109E+01+
*       1.2853258541E+02               0
GRID*               5534               02.0000000000E+018.9099790626E+01+
*       1.3033804487E+02               0
GRID*               5535               02.0000000000E+018.8306533928E+01+
*       1.3268116090E+02               0
GRID*               5536               02.0000000000E+019.0348450225E+01+
*       1.3222941233E+02               0
GRID*               5537               02.0000000000E+018.6918556659E+01+
*       1.3458559999E+02               0
GRID*               5538               02.0000000000E+018.8362103933E+01+
*       1.3705780976E+02               0
GRID*               5539               02.0000000000E+019.0049152573E+01+
*       1.3933226924E+02               0
GRID*               5540               02.0000000000E+019.1663399144E+01+
*       1.4187300799E+02               0
GRID*               5541               02.0000000000E+019.1242242168E+01+
*       1.3684698783E+02               0
GRID*               5542               02.0000000000E+019.2188871482E+01+
*       1.3409209381E+02               0
GRID*               5543               02.0000000000E+019.3875920123E+01+
*       1.3636655328E+02               0
GRID*               5544               02.0000000000E+019.6464645404E+01+
*       1.3856072366E+02               0
GRID*               5545               02.0000000000E+019.4979399970E+01+
*       1.4717366728E+02               0
GRID*               5546               02.0000000000E+019.3208456740E+01+
*       1.4448595162E+02               0
GRID*               5547               02.0000000000E+019.8009703001E+01+
*       1.4717366728E+02               0
GRID*               5548               02.0000000000E+019.8009703001E+01+
*       1.4417366728E+02               0
GRID*               5549               02.0000000000E+019.4474348405E+01+
*       1.4173439094E+02               0
GRID*               5550               02.0000000000E+019.8009703001E+01+
*       1.4117366728E+02               0
GRID*               5551               02.0000000000E+018.9281439999E+01+
*       6.7382302187E+01               0
GRID*               5552               02.0000000000E+019.1832574024E+01+
*       6.9224274443E+01               0
GRID*               5553               02.0000000000E+018.6745582333E+01+
*       6.5637352583E+01               0
GRID*               5554               02.0000000000E+019.7057440264E+01+
*       7.2971584385E+01               0
GRID*               5555               02.0000000000E+019.4348000171E+01+
*       7.1041256965E+01               0
GRID*               5556               02.0000000000E+015.4030544728E+01+
*       4.0407251183E+01               0
GRID*               5557               02.0000000000E+015.2058235715E+01+
*       3.8568642261E+01               0
GRID*               5558               02.0000000000E+015.6085712564E+01+
*       4.2269132273E+01               0
GRID*               5559               02.0000000000E+016.2832764026E+01+
*       4.7431124054E+01               0
GRID*               5560               02.0000000000E+016.5169068943E+01+
*       4.9120750861E+01               0
GRID*               5561               02.0000000000E+016.0531266217E+01+
*       4.5739778276E+01               0
GRID*               5562               02.0000000000E+015.8235095217E+01+
*       4.3935224151E+01               0
GRID*               5563               02.0000000000E+016.7506708922E+01+
*       5.0843498900E+01               0
GRID*               5564               02.0000000000E+016.9779574447E+01+
*       5.2598743617E+01               0
GRID*               5565               02.0000000000E+018.4239162309E+01+
*       6.3800313925E+01               0
GRID*               5566               02.0000000000E+018.1683710696E+01+
*       6.1918755904E+01               0
GRID*               5567               02.0000000000E+017.2128495676E+01+
*       5.4381680547E+01               0
GRID*               5568               02.0000000000E+017.4430892270E+01+
*       5.6244386933E+01               0
GRID*               5569               02.0000000000E+017.9226781283E+01+
*       6.0054815216E+01               0
GRID*               5570               02.0000000000E+017.6820970244E+01+
*       5.8088672098E+01               0
GRID*               5571               02.0000000000E+011.6042425225E+01+
*       9.2446064308E+00               0
GRID*               5572               02.0000000000E+011.6827360477E+01+
*       9.9364117595E+00               0
GRID*               5573               02.0000000000E+011.4027381756E+01+
*       1.0056551327E+01               0
GRID*               5574               02.0000000000E+011.4964004684E+01+
*       9.4557526827E+00               0
GRID*               5575               02.0000000000E+011.4894780004E+01+
*       1.0684172855E+01               0
GRID*               5576               02.0000000000E+011.8406280116E+01+
*       1.1758221450E+01               0
GRID*               5577               02.0000000000E+011.9965177819E+01+
*       1.2596755369E+01               0
GRID*               5578               02.0000000000E+011.6439865774E+01+
*       1.1211521986E+01               0
GRID*               5579               02.0000000000E+011.7435823319E+01+
*       1.1064559534E+01               0
GRID*               5580               02.0000000000E+014.9881757750E+01+
*       3.6824924255E+01               0
GRID*               5581               02.0000000000E+014.7664247330E+01+
*       3.4733059501E+01               0
GRID*               5582               02.0000000000E+012.7567918124E+01+
*       1.8341505435E+01               0
GRID*               5583               02.0000000000E+012.9115783207E+01+
*       1.9828904306E+01               0
GRID*               5584               02.0000000000E+012.6200038256E+01+
*       1.7263587775E+01               0
GRID*               5585               02.0000000000E+012.4872815081E+01+
*       1.5847210963E+01               0
GRID*               5586               02.0000000000E+012.1389295672E+01+
*       1.3707015124E+01               0
GRID*               5587               02.0000000000E+012.2885725655E+01+
*       1.4749254973E+01               0
GRID*               5588               02.0000000000E+012.0879150735E+01+
*       1.3045982470E+01               0
GRID*               5589               02.0000000000E+012.2102322386E+01+
*       1.2736259996E+01               0
GRID*               5590               02.0000000000E+012.3921769073E+01+
*       1.4785305105E+01               0
GRID*               5591               02.0000000000E+013.1271457966E+01+
*       2.0834289305E+01               0
GRID*               5592               02.0000000000E+013.3246702611E+01+
*       2.2606536022E+01               0
GRID*               5593               02.0000000000E+014.5156255894E+01+
*       3.2807805837E+01               0
GRID*               5594               02.0000000000E+014.2650546753E+01+
*       3.0737731702E+01               0
GRID*               5595               02.0000000000E+013.5563886197E+01+
*       2.4567787240E+01               0
GRID*               5596               02.0000000000E+013.7790265403E+01+
*       2.6613680819E+01               0
GRID*               5597               02.0000000000E+014.0209232332E+01+
*       2.8591290005E+01               0
GRID*               5598               02.0000000000E+019.7421518431E+01+
*       -5.536766776E+01               0
GRID*               5599               02.0000000000E+019.7421518431E+01+
*       -5.836766776E+01               0
GRID*               5600               02.0000000000E+012.4740637514E+01+
*       -7.633309370E+00               0
GRID*               5601               02.0000000000E+012.5316315797E+01+
*       -8.469410267E+00               0
GRID*               5602               02.0000000000E+012.4582390157E+01+
*       -8.594810145E+00               0
GRID*               5603               02.0000000000E+012.5154507030E+01+
*       -5.961544436E+00               0
GRID*               5604               02.0000000000E+012.5605790874E+01+
*       -5.728834895E+00               0
GRID*               5605               02.0000000000E+012.4990020898E+01+
*       -7.099638116E+00               0
GRID*               5606               02.0000000000E+012.4256095257E+01+
*       -7.225037993E+00               0
GRID*               5607               02.0000000000E+012.5046021222E+01+
*       -6.473652318E+00               0
GRID*               5608               02.0000000000E+012.5530563479E+01+
*       -6.881923695E+00               0
GRID*               5609               02.0000000000E+012.3774334800E+01+
*       -7.329577108E+00               0
GRID*               5610               02.0000000000E+012.4023718184E+01+
*       -6.795905853E+00               0
GRID*               5611               02.0000000000E+012.4125725851E+01+
*       -6.401919264E+00               0
GRID*               5612               02.0000000000E+012.3643965394E+01+
*       -6.506458379E+00               0
GRID*               5613               02.0000000000E+012.4613964449E+01+
*       -6.179258856E+00               0
GRID*               5614               02.0000000000E+013.0318015692E+01+
*       -7.181850477E+00               0
GRID*               5615               02.0000000000E+012.9585043991E+01+
*       -6.948877621E+00               0
GRID*               5616               02.0000000000E+013.0561292856E+01+
*       -8.049319164E+00               0
GRID*               5617               02.0000000000E+013.0635292946E+01+
*       -9.018867052E+00               0
GRID*               5618               02.0000000000E+012.9782723725E+01+
*       -8.708179292E+00               0
GRID*               5619               02.0000000000E+013.2292231895E+01+
*       -8.493690950E+00               0
GRID*               5620               02.0000000000E+013.1089274416E+01+
*       -1.025671552E+01               0
GRID*               5621               02.0000000000E+013.0993177328E+01+
*       -1.153803682E+01               0
GRID*               5622               02.0000000000E+012.9760626728E+01+
*       -1.095904848E+01               0
GRID*               5623               02.0000000000E+013.2746213365E+01+
*       -9.731539416E+00               0
GRID*               5624               02.0000000000E+013.3636264865E+01+
*       -1.029464800E+01               0
GRID*               5625               02.0000000000E+013.1867843546E+01+
*       -9.597855390E+00               0
GRID*               5626               02.0000000000E+012.8740635762E+01+
*       -1.002952397E+01               0
GRID*               5627               02.0000000000E+012.8644538674E+01+
*       -1.131084527E+01               0
GRID*               5628               02.0000000000E+012.6040458799E+01+
*       -8.847613500E+00               0
GRID*               5629               02.0000000000E+012.6198706156E+01+
*       -7.886112725E+00               0
GRID*               5630               02.0000000000E+012.8039934121E+01+
*       -9.482956574E+00               0
GRID*               5631               02.0000000000E+012.9156022174E+01+
*       -9.131159783E+00               0
GRID*               5632               02.0000000000E+012.7273698434E+01+
*       -9.322818360E+00               0
GRID*               5633               02.0000000000E+012.6391308075E+01+
*       -9.906115902E+00               0
GRID*               5634               02.0000000000E+012.7689084845E+01+
*       -8.424454172E+00               0
GRID*               5635               02.0000000000E+012.6514560766E+01+
*       -5.181320414E+00               0
GRID*               5636               02.0000000000E+012.6953296773E+01+
*       -5.384742118E+00               0
GRID*               5637               02.0000000000E+012.6075625265E+01+
*       -5.437108751E+00               0
GRID*               5638               02.0000000000E+012.6056398194E+01+
*       -5.964211754E+00               0
GRID*               5639               02.0000000000E+012.6123650958E+01+
*       -6.518488683E+00               0
GRID*               5640               02.0000000000E+012.6593485349E+01+
*       -6.226762539E+00               0
GRID*               5641               02.0000000000E+012.6067650633E+01+
*       -7.144474481E+00               0
GRID*               5642               02.0000000000E+012.6791793635E+01+
*       -7.522677713E+00               0
GRID*               5643               02.0000000000E+012.7383466256E+01+
*       -5.553765804E+00               0
GRID*               5644               02.0000000000E+012.7844629050E+01+
*       -5.799717530E+00               0
GRID*               5645               02.0000000000E+012.6956402068E+01+
*       -5.841509296E+00               0
GRID*               5646               02.0000000000E+012.7023654832E+01+
*       -6.395786225E+00               0
GRID*               5647               02.0000000000E+012.8919696386E+01+
*       -7.376680489E+00               0
GRID*               5648               02.0000000000E+012.8796016741E+01+
*       -6.586926705E+00               0
GRID*               5649               02.0000000000E+012.9082022084E+01+
*       -8.161611895E+00               0
GRID*               5650               02.0000000000E+012.8292994834E+01+
*       -7.799660979E+00               0
GRID*               5651               02.0000000000E+012.7526759147E+01+
*       -7.639522766E+00               0
GRID*               5652               02.0000000000E+012.7395703624E+01+
*       -6.897884521E+00               0
GRID*               5653               02.0000000000E+012.8216677842E+01+
*       -6.301815826E+00               0
GRID*               5654               02.0000000000E+012.7758620343E+01+
*       -6.512631277E+00               0
GRID*               5655               02.0000000000E+019.7412723562E+01+
*       -5.237761455E+01               0
GRID*               5656               02.0000000000E+019.7412723562E+01+
*       -4.937761455E+01               0
GRID*               5657               02.0000000000E+019.4834241992E+01+
*       -5.374528231E+01               0
GRID*               5658               02.0000000000E+019.2245552418E+01+
*       -5.510074036E+01               0
GRID*               5659               02.0000000000E+019.2236757549E+01+
*       -5.211068715E+01               0
GRID*               5660               02.0000000000E+019.7409637089E+01+
*       -4.640288105E+01               0
GRID*               5661               02.0000000000E+019.4822360651E+01+
*       -4.778049560E+01               0
GRID*               5662               02.0000000000E+019.7409637089E+01+
*       -4.340288105E+01               0
GRID*               5663               02.0000000000E+019.4811636119E+01+
*       -4.184873091E+01               0
GRID*               5664               02.0000000000E+019.2237612552E+01+
*       -4.913752661E+01               0
GRID*               5665               02.0000000000E+019.2234526079E+01+
*       -4.616279311E+01               0
GRID*               5666               02.0000000000E+018.9648922977E+01+
*       -5.049298466E+01               0
GRID*               5667               02.0000000000E+018.7044112879E+01+
*       -5.180606239E+01               0
GRID*               5668               02.0000000000E+018.7044967882E+01+
*       -4.883290184E+01               0
GRID*               5669               02.0000000000E+019.2240651201E+01+
*       -4.323210059E+01               0
GRID*               5670               02.0000000000E+018.9655903103E+01+
*       -4.458913160E+01               0
GRID*               5671               02.0000000000E+019.2233013142E+01+
*       -4.027506940E+01               0
GRID*               5672               02.0000000000E+018.9646112382E+01+
*       -3.875988786E+01               0
GRID*               5673               02.0000000000E+013.2237089254E+01+
*       -1.262282348E+01               0
GRID*               5674               02.0000000000E+013.3697213647E+01+
*       -1.179937596E+01               0
GRID*               5675               02.0000000000E+013.3612477884E+01+
*       -1.358649558E+01               0
GRID*               5676               02.0000000000E+013.0908441566E+01+
*       -1.332515644E+01               0
GRID*               5677               02.0000000000E+013.5011653495E+01+
*       -1.125832010E+01               0
GRID*               5678               02.0000000000E+013.6370260290E+01+
*       -1.186669603E+01               0
GRID*               5679               02.0000000000E+013.5253338900E+01+
*       -1.467740587E+01               0
GRID*               5680               02.0000000000E+013.6479044700E+01+
*       -1.346387137E+01               0
GRID*               5681               02.0000000000E+013.6659781322E+01+
*       -1.537822917E+01               0
GRID*               5682               02.0000000000E+013.3793214507E+01+
*       -1.550085338E+01               0
GRID*               5683               02.0000000000E+013.7776702713E+01+
*       -1.256751933E+01               0
GRID*               5684               02.0000000000E+013.9609750736E+01+
*       -1.346244686E+01               0
GRID*               5685               02.0000000000E+013.9139314030E+01+
*       -1.626831500E+01               0
GRID*               5686               02.0000000000E+013.7913608230E+01+
*       -1.748184949E+01               0
GRID*               5687               02.0000000000E+014.0863577644E+01+
*       -1.556606718E+01               0
GRID*               5688               02.0000000000E+014.3591646780E+01+
*       -1.726558961E+01               0
GRID*               5689               02.0000000000E+018.7094772294E+01+
*       -4.590131325E+01               0
GRID*               5690               02.0000000000E+018.7100897416E+01+
*       -4.297062074E+01               0
GRID*               5691               02.0000000000E+018.4489962195E+01+
*       -4.721439098E+01               0
GRID*               5692               02.0000000000E+018.1898692407E+01+
*       -4.843466383E+01               0
GRID*               5693               02.0000000000E+018.1948496819E+01+
*       -4.550307523E+01               0
GRID*               5694               02.0000000000E+014.8315117260E+01+
*       -1.867694497E+01               0
GRID*               5695               02.0000000000E+015.1507215539E+01+
*       -1.949363158E+01               0
GRID*               5696               02.0000000000E+014.6059243206E+01+
*       -1.930096185E+01               0
GRID*               5697               02.0000000000E+014.2860737365E+01+
*       -2.040730755E+01               0
GRID*               5698               02.0000000000E+014.7584207845E+01+
*       -2.181866291E+01               0
GRID*               5699               02.0000000000E+018.7126437345E+01+
*       -4.011705475E+01               0
GRID*               5700               02.0000000000E+018.4565306537E+01+
*       -4.142923640E+01               0
GRID*               5701               02.0000000000E+018.7110521503E+01+
*       -3.721850353E+01               0
GRID*               5702               02.0000000000E+018.4552336381E+01+
*       -3.575515835E+01               0
GRID*               5703               02.0000000000E+014.9735194710E+01+
*       -2.352180614E+01               0
GRID*               5704               02.0000000000E+015.1963049078E+01+
*       -2.223703904E+01               0
GRID*               5705               02.0000000000E+015.1858161890E+01+
*       -2.456419914E+01               0
GRID*               5706               02.0000000000E+014.7479320656E+01+
*       -2.414582301E+01               0
GRID*               5707               02.0000000000E+015.3630182718E+01+
*       -2.053602458E+01               0
GRID*               5708               02.0000000000E+015.6288714354E+01+
*       -2.168434844E+01               0
GRID*               5709               02.0000000000E+018.2080979883E+01+
*       -4.267988120E+01               0
GRID*               5710               02.0000000000E+018.2106519813E+01+
*       -3.982631522E+01               0
GRID*               5711               02.0000000000E+017.9489710095E+01+
*       -4.390015405E+01               0
GRID*               5712               02.0000000000E+017.6990813157E+01+
*       -4.499552817E+01               0
GRID*               5713               02.0000000000E+017.7123296221E+01+
*       -4.217233414E+01               0
GRID*               5714               02.0000000000E+018.2138066707E+01+
*       -3.709914178E+01               0
GRID*               5715               02.0000000000E+017.9653740054E+01+
*       -3.834978659E+01               0
GRID*               5716               02.0000000000E+018.2099556622E+01+
*       -3.427862972E+01               0
GRID*               5717               02.0000000000E+017.9581477961E+01+
*       -3.289279433E+01               0
GRID*               5718               02.0000000000E+015.8825646160E+01+
*       -2.298728864E+01               0
GRID*               5719               02.0000000000E+015.6622948064E+01+
*       -2.458237225E+01               0
GRID*               5720               02.0000000000E+016.1494838432E+01+
*       -2.425443088E+01               0
GRID*               5721               02.0000000000E+016.4222073952E+01+
*       -2.560141445E+01               0
GRID*               5722               02.0000000000E+016.6908418104E+01+
*       -2.686252848E+01               0
GRID*               5723               02.0000000000E+016.1887115390E+01+
*       -2.723229601E+01               0
GRID*               5724               02.0000000000E+016.9640266284E+01+
*       -2.797364336E+01               0
GRID*               5725               02.0000000000E+016.7346199090E+01+
*       -2.969039444E+01               0
GRID*               5726               02.0000000000E+017.2254703690E+01+
*       -2.920045502E+01               0
GRID*               5727               02.0000000000E+017.4709033554E+01+
*       -3.027264210E+01               0
GRID*               5728               02.0000000000E+017.2532377134E+01+
*       -3.187369640E+01               0
GRID*               5729               02.0000000000E+017.7232187986E+01+
*       -3.155442950E+01               0
GRID*               5730               02.0000000000E+017.7335996973E+01+
*       -3.428424831E+01               0
GRID*               5731               02.0000000000E+017.7349746933E+01+
*       -3.954350067E+01               0
GRID*               5732               02.0000000000E+017.4850849995E+01+
*       -4.063887478E+01               0
GRID*               5733               02.0000000000E+017.7381293827E+01+
*       -3.681632723E+01               0
GRID*               5734               02.0000000000E+017.5032003852E+01+
*       -3.547796240E+01               0
GRID*               5735               02.0000000000E+017.3150933163E+01+
*       -3.416249780E+01               0
GRID*               5736               02.0000000000E+017.0696603299E+01+
*       -3.309031072E+01               0
GRID*               5737               02.0000000000E+017.3196230017E+01+
*       -3.669457672E+01               0
GRID*               5738               02.0000000000E+017.2676546760E+01+
*       -3.892674072E+01               0
GRID*               5739               02.0000000000E+017.2450096049E+01+
*       -4.155557419E+01               0
GRID*               5740               02.0000000000E+017.0795476071E+01+
*       -3.761127613E+01               0
GRID*               5741               02.0000000000E+016.8558464793E+01+
*       -3.531188955E+01               0
GRID*               5742               02.0000000000E+016.8038781537E+01+
*       -3.754405355E+01               0
GRID*               5743               02.0000000000E+016.7939908765E+01+
*       -3.302308815E+01               0
GRID*               5744               02.0000000000E+016.5208060584E+01+
*       -3.191197327E+01               0
GRID*               5745               02.0000000000E+015.4212552364E+01+
*       -2.606895938E+01               0
GRID*               5746               02.0000000000E+015.1984697996E+01+
*       -2.735372648E+01               0
GRID*               5747               02.0000000000E+015.6749484171E+01+
*       -2.737189958E+01               0
GRID*               5748               02.0000000000E+015.9395613102E+01+
*       -2.891577319E+01               0
GRID*               5749               02.0000000000E+015.6985217402E+01+
*       -3.040236032E+01               0
GRID*               5750               02.0000000000E+016.2122848621E+01+
*       -3.026275675E+01               0
GRID*               5751               02.0000000000E+016.2716558296E+01+
*       -3.359545045E+01               0
GRID*               5752               02.0000000000E+012.2747326754E+01+
*       -6.976038827E+00               0
GRID*               5753               02.0000000000E+012.2126649692E+01+
*       -7.201157497E+00               0
GRID*               5754               02.0000000000E+012.3199149066E+01+
*       -7.143343204E+00               0
GRID*               5755               02.0000000000E+012.3431526139E+01+
*       -7.572475344E+00               0
GRID*               5756               02.0000000000E+012.3090135415E+01+
*       -6.733140590E+00               0
GRID*               5757               02.0000000000E+01-6.513154566E+01+
*       -1.473784789E+02               0
GRID*               5758               02.0000000000E+01-6.816184869E+01+
*       -1.473784789E+02               0
GRID*               5759               02.0000000000E+01-6.211904543E+01+
*       -1.473601223E+02               0
GRID*               5760               02.0000000000E+01-5.908874240E+01+
*       -1.473601223E+02               0
GRID*               5761               02.0000000000E+01-6.361422745E+01+
*       -1.447386011E+02               0
GRID*               5762               02.0000000000E+01-5.002419318E+01+
*       -1.473337613E+02               0
GRID*               5763               02.0000000000E+01-5.304222742E+01+
*       -1.473450469E+02               0
GRID*               5764               02.0000000000E+01-5.155126909E+01+
*       -1.446788082E+02               0
GRID*               5765               02.0000000000E+01-4.699389015E+01+
*       -1.473337613E+02               0
GRID*               5766               02.0000000000E+01-5.607253045E+01+
*       -1.473450469E+02               0
GRID*               5767               02.0000000000E+01-5.758551527E+01+
*       -1.447051691E+02               0
GRID*               5768               02.0000000000E+01-5.757933602E+01+
*       -1.341212472E+02               0
GRID*               5769               02.0000000000E+01-5.905107227E+01+
*       -1.315070507E+02               0
GRID*               5770               02.0000000000E+01-5.607040366E+01+
*       -1.314565323E+02               0
GRID*               5771               02.0000000000E+01-5.907177430E+01+
*       -1.367931189E+02               0
GRID*               5772               02.0000000000E+01-6.058484581E+01+
*       -1.394481299E+02               0
GRID*               5773               02.0000000000E+01-6.207307613E+01+
*       -1.368267766E+02               0
GRID*               5774               02.0000000000E+01-5.609110569E+01+
*       -1.367426004E+02               0
GRID*               5775               02.0000000000E+01-5.309366082E+01+
*       -1.367107512E+02               0
GRID*               5776               02.0000000000E+01-5.458609910E+01+
*       -1.393826229E+02               0
GRID*               5777               02.0000000000E+01-5.307897878E+01+
*       -1.420204337E+02               0
GRID*               5778               02.0000000000E+01-5.607642365E+01+
*       -1.420522829E+02               0
GRID*               5779               02.0000000000E+01-5.006094454E+01+
*       -1.420091482E+02               0
GRID*               5780               02.0000000000E+01-6.209393743E+01+
*       -1.421010161E+02               0
GRID*               5781               02.0000000000E+01-6.510643767E+01+
*       -1.421193727E+02               0
GRID*               5782               02.0000000000E+01-5.909263560E+01+
*       -1.420673583E+02               0
GRID*               5783               02.0000000000E+01-4.396216941E+01+
*       -1.473318446E+02               0
GRID*               5784               02.0000000000E+01-4.093186638E+01+
*       -1.473318446E+02               0
GRID*               5785               02.0000000000E+01-4.550151411E+01+
*       -1.446656059E+02               0
GRID*               5786               02.0000000000E+01-3.180846916E+01+
*       -1.473615521E+02               0
GRID*               5787               02.0000000000E+01-3.485454879E+01+
*       -1.473399918E+02               0
GRID*               5788               02.0000000000E+01-3.332968461E+01+
*       -1.447015439E+02               0
GRID*               5789               02.0000000000E+01-2.877816612E+01+
*       -1.473615521E+02               0
GRID*               5790               02.0000000000E+01-3.788485182E+01+
*       -1.473399918E+02               0
GRID*               5791               02.0000000000E+01-3.942277881E+01+
*       -1.446718364E+02               0
GRID*               5792               02.0000000000E+01-5.457235054E+01+
*       -1.287776478E+02               0
GRID*               5793               02.0000000000E+01-5.310061430E+01+
*       -1.313918442E+02               0
GRID*               5794               02.0000000000E+01-4.870629086E+01+
*       -1.180365750E+02               0
GRID*               5795               02.0000000000E+01-5.018225012E+01+
*       -1.155379386E+02               0
GRID*               5796               02.0000000000E+01-4.727372388E+01+
*       -1.153907659E+02               0
GRID*               5797               02.0000000000E+01-5.013558795E+01+
*       -1.207499698E+02               0
GRID*               5798               02.0000000000E+01-4.722706170E+01+
*       -1.206027971E+02               0
GRID*               5799               02.0000000000E+01-5.160312539E+01+
*       -1.234128737E+02               0
GRID*               5800               02.0000000000E+01-5.308235454E+01+
*       -1.208466516E+02               0
GRID*               5801               02.0000000000E+01-5.307622658E+01+
*       -1.261112577E+02               0
GRID*               5802               02.0000000000E+01-5.604601594E+01+
*       -1.261759457E+02               0
GRID*               5803               02.0000000000E+01-5.012945999E+01+
*       -1.260145758E+02               0
GRID*               5804               02.0000000000E+01-3.790597304E+01+
*       -1.419973399E+02               0
GRID*               5805               02.0000000000E+01-4.095298761E+01+
*       -1.419891926E+02               0
GRID*               5806               02.0000000000E+01-3.484418827E+01+
*       -1.420240263E+02               0
GRID*               5807               02.0000000000E+01-3.179810864E+01+
*       -1.420455866E+02               0
GRID*               5808               02.0000000000E+01-3.637439707E+01+
*       -1.393413825E+02               0
GRID*               5809               02.0000000000E+01-4.400565416E+01+
*       -1.419903708E+02               0
GRID*               5810               02.0000000000E+01-4.248884839E+01+
*       -1.393158743E+02               0
GRID*               5811               02.0000000000E+01-4.703737490E+01+
*       -1.419922876E+02               0
GRID*               5812               02.0000000000E+01-4.856508459E+01+
*       -1.393339131E+02               0
GRID*               5813               02.0000000000E+01-5.159366164E+01+
*       -1.340299916E+02               0
GRID*               5814               02.0000000000E+01-5.009560853E+01+
*       -1.313511071E+02               0
GRID*               5815               02.0000000000E+01-5.008865505E+01+
*       -1.366700141E+02               0
GRID*               5816               02.0000000000E+01-4.706508541E+01+
*       -1.366531535E+02               0
GRID*               5817               02.0000000000E+01-3.790252441E+01+
*       -1.366189969E+02               0
GRID*               5818               02.0000000000E+01-3.484073964E+01+
*       -1.366456834E+02               0
GRID*               5819               02.0000000000E+01-4.567107471E+01+
*       -1.231922838E+02               0
GRID*               5820               02.0000000000E+01-4.424177763E+01+
*       -1.204788890E+02               0
GRID*               5821               02.0000000000E+01-4.402678517E+01+
*       -1.366220318E+02               0
GRID*               5822               02.0000000000E+01-4.555035563E+01+
*       -1.339581328E+02               0
GRID*               5823               02.0000000000E+01-4.097411862E+01+
*       -1.366208536E+02               0
GRID*               5824               02.0000000000E+01-3.944046118E+01+
*       -1.339251545E+02               0
GRID*               5825               02.0000000000E+01-4.100538747E+01+
*       -1.311848920E+02               0
GRID*               5826               02.0000000000E+01-3.793379325E+01+
*       -1.311830353E+02               0
GRID*               5827               02.0000000000E+01-4.712343776E+01+
*       -1.259461284E+02               0
GRID*               5828               02.0000000000E+01-4.859653895E+01+
*       -1.286445123E+02               0
GRID*               5829               02.0000000000E+01-4.413815368E+01+
*       -1.258222203E+02               0
GRID*               5830               02.0000000000E+01-4.109225509E+01+
*       -1.257555743E+02               0
GRID*               5831               02.0000000000E+01-4.254461813E+01+
*       -1.285094188E+02               0
GRID*               5832               02.0000000000E+01-4.708958630E+01+
*       -1.312826597E+02               0
GRID*               5833               02.0000000000E+01-4.405128606E+01+
*       -1.312515380E+02               0
GRID*               5834               02.0000000000E+01-7.554079421E+00+
*       -1.474535973E+02               0
GRID*               5835               02.0000000000E+01-1.057712967E+01+
*       -1.474390160E+02               0
GRID*               5836               02.0000000000E+01-9.040300003E+00+
*       -1.448926133E+02               0
GRID*               5837               02.0000000000E+01-4.523776391E+00+
*       -1.474535973E+02               0
GRID*               5838               02.0000000000E+01-2.573440032E+01+
*       -1.473910607E+02               0
GRID*               5839               02.0000000000E+01-2.723983918E+01+
*       -1.447526128E+02               0
GRID*               5840               02.0000000000E+01-2.270409729E+01+
*       -1.473910607E+02               0
GRID*               5841               02.0000000000E+01-2.115953501E+01+
*       -1.448101780E+02               0
GRID*               5842               02.0000000000E+01-1.966755893E+01+
*       -1.474191173E+02               0
GRID*               5843               02.0000000000E+01-1.360743270E+01+
*       -1.474390160E+02               0
GRID*               5844               02.0000000000E+01-1.663725590E+01+
*       -1.474191173E+02               0
GRID*               5845               02.0000000000E+01-1.509317345E+01+
*       -1.448581333E+02               0
GRID*               5846               02.0000000000E+01-4.587399239E+01+
*       -1.126966178E+02               0
GRID*               5847               02.0000000000E+01-4.736323477E+01+
*       -1.102820500E+02               0
GRID*               5848               02.0000000000E+01-4.448754403E+01+
*       -1.100865382E+02               0
GRID*               5849               02.0000000000E+01-4.280968096E+01+
*       -1.176983548E+02               0
GRID*               5850               02.0000000000E+01-4.125369397E+01+
*       -1.202878415E+02               0
GRID*               5851               02.0000000000E+01-4.439803313E+01+
*       -1.151952541E+02               0
GRID*               5852               02.0000000000E+01-4.140994947E+01+
*       -1.150042066E+02               0
GRID*               5853               02.0000000000E+01-3.954740726E+01+
*       -1.229162933E+02               0
GRID*               5854               02.0000000000E+01-3.795387171E+01+
*       -1.256034919E+02               0
GRID*               5855               02.0000000000E+01-3.811531059E+01+
*       -1.201357591E+02               0
GRID*               5856               02.0000000000E+01-2.872066444E+01+
*       -1.420978274E+02               0
GRID*               5857               02.0000000000E+01-2.567689864E+01+
*       -1.421273361E+02               0
GRID*               5858               02.0000000000E+01-3.023516810E+01+
*       -1.394203099E+02               0
GRID*               5859               02.0000000000E+01-3.171202755E+01+
*       -1.367024726E+02               0
GRID*               5860               02.0000000000E+01-2.863458335E+01+
*       -1.367547134E+02               0
GRID*               5861               02.0000000000E+01-3.630182706E+01+
*       -1.284159897E+02               0
GRID*               5862               02.0000000000E+01-3.473690077E+01+
*       -1.311562522E+02               0
GRID*               5863               02.0000000000E+01-3.475697923E+01+
*       -1.255767088E+02               0
GRID*               5864               02.0000000000E+01-3.324015489E+01+
*       -1.339800869E+02               0
GRID*               5865               02.0000000000E+01-3.160818869E+01+
*       -1.312130414E+02               0
GRID*               5866               02.0000000000E+01-3.333293411E+01+
*       -1.039271547E+02               0
GRID*               5867               02.0000000000E+01-3.047232820E+01+
*       -1.036216145E+02               0
GRID*               5868               02.0000000000E+01-3.174913579E+01+
*       -1.062804651E+02               0
GRID*               5869               02.0000000000E+01-3.617561548E+01+
*       -1.042686586E+02               0
GRID*               5870               02.0000000000E+01-3.746395922E+01+
*       -1.068888758E+02               0
GRID*               5871               02.0000000000E+01-3.902983300E+01+
*       -1.045715289E+02               0
GRID*               5872               02.0000000000E+01-3.489880790E+01+
*       -1.016098079E+02               0
GRID*               5873               02.0000000000E+01-3.648060203E+01+
*       -9.929908144E+01               0
GRID*               5874               02.0000000000E+01-3.363792066E+01+
*       -9.895757762E+01               0
GRID*               5875               02.0000000000E+01-3.805566712E+01+
*       -9.704147596E+01               0
GRID*               5876               02.0000000000E+01-3.969463719E+01+
*       -9.479080485E+01               0
GRID*               5877               02.0000000000E+01-3.685868486E+01+
*       -9.439618007E+01               0
GRID*               5878               02.0000000000E+01-3.931655436E+01+
*       -9.969370622E+01               0
GRID*               5879               02.0000000000E+01-4.183057443E+01+
*       -1.048714677E+02               0
GRID*               5880               02.0000000000E+01-4.314748157E+01+
*       -1.074318583E+02               0
GRID*               5881               02.0000000000E+01-4.465987926E+01+
*       -1.051115799E+02               0
GRID*               5882               02.0000000000E+01-4.054223069E+01+
*       -1.022512505E+02               0
GRID*               5883               02.0000000000E+01-4.211729578E+01+
*       -9.999364503E+01               0
GRID*               5884               02.0000000000E+01-1.490209358E+01+
*       -1.345844761E+02               0
GRID*               5885               02.0000000000E+01-1.632371627E+01+
*       -1.320107728E+02               0
GRID*               5886               02.0000000000E+01-1.332869442E+01+
*       -1.320893896E+02               0
GRID*               5887               02.0000000000E+01-1.644981949E+01+
*       -1.371090411E+02               0
GRID*               5888               02.0000000000E+01-1.803384842E+01+
*       -1.396598334E+02               0
GRID*               5889               02.0000000000E+01-1.948114434E+01+
*       -1.370566515E+02               0
GRID*               5890               02.0000000000E+01-1.345479765E+01+
*       -1.371876579E+02               0
GRID*               5891               02.0000000000E+01-1.044493987E+01+
*       -1.372298991E+02               0
GRID*               5892               02.0000000000E+01-1.199266579E+01+
*       -1.397544641E+02               0
GRID*               5893               02.0000000000E+01-1.052307913E+01+
*       -1.423373687E+02               0
GRID*               5894               02.0000000000E+01-1.353293691E+01+
*       -1.422951275E+02               0
GRID*               5895               02.0000000000E+01-7.500028883E+00+
*       -1.423519499E+02               0
GRID*               5896               02.0000000000E+01-1.959408495E+01+
*       -1.422228392E+02               0
GRID*               5897               02.0000000000E+01-2.263062332E+01+
*       -1.421947826E+02               0
GRID*               5898               02.0000000000E+01-1.656276011E+01+
*       -1.422752288E+02               0
GRID*               5899               02.0000000000E+01-4.007071615E+01+
*       -1.122473672E+02               0
GRID*               5900               02.0000000000E+01-3.848236398E+01+
*       -1.147504679E+02               0
GRID*               5901               02.0000000000E+01-4.165823919E+01+
*       -1.098464260E+02               0
GRID*               5902               02.0000000000E+01-3.873065370E+01+
*       -1.095926874E+02               0
GRID*               5903               02.0000000000E+01-3.587643617E+01+
*       -1.092898170E+02               0
GRID*               5904               02.0000000000E+01-3.010405591E+01+
*       -1.086500196E+02               0
GRID*               5905               02.0000000000E+01-2.728688571E+01+
*       -1.083080581E+02               0
GRID*               5906               02.0000000000E+01-2.850241175E+01+
*       -1.109831528E+02               0
GRID*               5907               02.0000000000E+01-3.296466182E+01+
*       -1.089555599E+02               0
GRID*               5908               02.0000000000E+01-3.423135630E+01+
*       -1.116593715E+02               0
GRID*               5909               02.0000000000E+01-2.554662439E+01+
*       -1.368692288E+02               0
GRID*               5910               02.0000000000E+01-2.702348384E+01+
*       -1.341513915E+02               0
GRID*               5911               02.0000000000E+01-2.411144858E+01+
*       -1.395399973E+02               0
GRID*               5912               02.0000000000E+01-2.250034906E+01+
*       -1.369366753E+02               0
GRID*               5913               02.0000000000E+01-2.091632014E+01+
*       -1.343858830E+02               0
GRID*               5914               02.0000000000E+01-1.769256971E+01+
*       -1.293658606E+02               0
GRID*               5915               02.0000000000E+01-1.903657635E+01+
*       -1.268093198E+02               0
GRID*               5916               02.0000000000E+01-1.609432375E+01+
*       -1.269591456E+02               0
GRID*               5917               02.0000000000E+01-1.926596887E+01+
*       -1.318609470E+02               0
GRID*               5918               02.0000000000E+01-2.228517359E+01+
*       -1.317409708E+02               0
GRID*               5919               02.0000000000E+01-3.674712079E+01+
*       -1.172153167E+02               0
GRID*               5920               02.0000000000E+01-3.504083408E+01+
*       -1.198437685E+02               0
GRID*               5921               02.0000000000E+01-3.540788747E+01+
*       -1.144584773E+02               0
GRID*               5922               02.0000000000E+01-3.249611312E+01+
*       -1.141242202E+02               0
GRID*               5923               02.0000000000E+01-2.840013485E+01+
*       -1.313718065E+02               0
GRID*               5924               02.0000000000E+01-2.989688073E+01+
*       -1.285479718E+02               0
GRID*               5925               02.0000000000E+01-2.531217588E+01+
*       -1.314863218E+02               0
GRID*               5926               02.0000000000E+01-2.366182460E+01+
*       -1.289613858E+02               0
GRID*               5927               02.0000000000E+01-2.676218869E+01+
*       -1.132540682E+02               0
GRID*               5928               02.0000000000E+01-2.412952545E+01+
*       -1.128539906E+02               0
GRID*               5929               02.0000000000E+01-2.520647260E+01+
*       -1.154668675E+02               0
GRID*               5930               02.0000000000E+01-2.957935890E+01+
*       -1.135960298E+02               0
GRID*               5931               02.0000000000E+01-3.075589007E+01+
*       -1.163951356E+02               0
GRID*               5932               02.0000000000E+01-2.024096267E+01+
*       -1.241527292E+02               0
GRID*               5933               02.0000000000E+01-2.147363202E+01+
*       -1.217127123E+02               0
GRID*               5934               02.0000000000E+01-1.867099973E+01+
*       -1.219625878E+02               0
GRID*               5935               02.0000000000E+01-2.183920864E+01+
*       -1.265594442E+02               0
GRID*               5936               02.0000000000E+01-2.486621093E+01+
*       -1.263047953E+02               0
GRID*               5937               02.0000000000E+01-2.352260613E+01+
*       -1.171715517E+02               0
GRID*               5938               02.0000000000E+01-2.615526937E+01+
*       -1.175716294E+02               0
GRID*               5939               02.0000000000E+01-2.218753598E+01+
*       -1.193994422E+02               0
GRID*               5940               02.0000000000E+01-2.375749893E+01+
*       -1.215895836E+02               0
GRID*               5941               02.0000000000E+01-2.123873922E+01+
*       -1.172946804E+02               0
GRID*               5942               02.0000000000E+01-3.121126636E+01+
*       -1.253263069E+02               0
GRID*               5943               02.0000000000E+01-2.800321252E+01+
*       -1.254850720E+02               0
GRID*               5944               02.0000000000E+01-3.286331101E+01+
*       -1.225138091E+02               0
GRID*               5945               02.0000000000E+01-3.149512121E+01+
*       -1.195933666E+02               0
GRID*               5946               02.0000000000E+01-2.857836699E+01+
*       -1.190651762E+02               0
GRID*               5947               02.0000000000E+01-2.618059655E+01+
*       -1.230831304E+02               0
GRID*               5948               02.0000000000E+01-2.689450052E+01+
*       -1.207698604E+02               0
GRID*               5949               02.0000000000E+017.5835803549E+00+
*       -1.474571115E+02               0
GRID*               5950               02.0000000000E+014.5532773246E+00+
*       -1.474571115E+02               0
GRID*               5951               02.0000000000E+011.0608010916E+01+
*       -1.474503697E+02               0
GRID*               5952               02.0000000000E+011.3638313947E+01+
*       -1.474503697E+02               0
GRID*               5953               02.0000000000E+019.1006821804E+00+
*       -1.449074812E+02               0
GRID*               5954               02.0000000000E+017.5931366944E+00+
*       -1.423651420E+02               0
GRID*               5955               02.0000000000E+011.0617567256E+01+
*       -1.423584003E+02               0
GRID*               5956               02.0000000000E+011.6663361016E+01+
*       -1.474436090E+02               0
GRID*               5957               02.0000000000E+011.9693664046E+01+
*       -1.474436090E+02               0
GRID*               5958               02.0000000000E+011.2129347557E+01+
*       -1.398026589E+02               0
GRID*               5959               02.0000000000E+011.3636893043E+01+
*       -1.423449982E+02               0
GRID*               5960               02.0000000000E+011.0621108058E+01+
*       -1.372593250E+02               0
GRID*               5961               02.0000000000E+011.3640433844E+01+
*       -1.372459229E+02               0
GRID*               5962               02.0000000000E+011.5150159811E+01+
*       -1.448939788E+02               0
GRID*               5963               02.0000000000E+011.6661940112E+01+
*       -1.423382374E+02               0
GRID*               5964               02.0000000000E+014.5757714842E+00+
*       -1.423724849E+02               0
GRID*               5965               02.0000000000E+016.0926565598E+00+
*       -1.398234039E+02               0
GRID*               5966               02.0000000000E+011.5526993217E+00+
*       -1.423716418E+02               0
GRID*               5967               02.0000000000E+01-1.462496481E+00+
*       -1.423703330E+02               0
GRID*               5968               02.0000000000E+016.0095546727E-02+
*       -1.398294380E+02               0
GRID*               5969               02.0000000000E+013.0531794564E+00+
*       -1.449133799E+02               0
GRID*               5970               02.0000000000E+011.5302051621E+00+
*       -1.474562684E+02               0
GRID*               5971               02.0000000000E+01-4.486175004E+00+
*       -1.423676619E+02               0
GRID*               5972               02.0000000000E+01-5.968954135E+00+
*       -1.398124173E+02               0
GRID*               5973               02.0000000000E+01-2.993571229E+00+
*       -1.449098657E+02               0
GRID*               5974               02.0000000000E+01-1.500097868E+00+
*       -1.474562684E+02               0
GRID*               5975               02.0000000000E+017.6089093865E+00+
*       -1.372758347E+02               0
GRID*               5976               02.0000000000E+014.5915441763E+00+
*       -1.372831776E+02               0
GRID*               5977               02.0000000000E+019.1199956743E+00+
*       -1.347190987E+02               0
GRID*               5978               02.0000000000E+017.6171479481E+00+
*       -1.321802633E+02               0
GRID*               5979               02.0000000000E+011.0629346619E+01+
*       -1.321637537E+02               0
GRID*               5980               02.0000000000E+014.6281141310E+00+
*       -1.271097421E+02               0
GRID*               5981               02.0000000000E+011.6409432566E+00+
*       -1.271326239E+02               0
GRID*               5982               02.0000000000E+013.1457809626E+00+
*       -1.245805270E+02               0
GRID*               5983               02.0000000000E+016.1248876591E+00+
*       -1.296433787E+02               0
GRID*               5984               02.0000000000E+014.6155367140E+00+
*       -1.321987237E+02               0
GRID*               5985               02.0000000000E+017.6297253651E+00+
*       -1.270912817E+02               0
GRID*               5986               02.0000000000E+011.5841145058E+00+
*       -1.372892215E+02               0
GRID*               5987               02.0000000000E+01-1.431081297E+00+
*       -1.372879127E+02               0
GRID*               5988               02.0000000000E+013.1003673325E+00+
*       -1.347416522E+02               0
GRID*               5989               02.0000000000E+011.6081070435E+00+
*       -1.322047676E+02               0
GRID*               5990               02.0000000000E+01-1.350575850E+00+
*       -1.271364233E+02               0
GRID*               5991               02.0000000000E+01-4.320828239E+00+
*       -1.271456343E+02               0
GRID*               5992               02.0000000000E+01-2.811642301E+00+
*       -1.246126199E+02               0
GRID*               5993               02.0000000000E+011.3175731856E-01+
*       -1.296656383E+02               0
GRID*               5994               02.0000000000E+01-1.383412063E+00+
*       -1.322085669E+02               0
GRID*               5995               02.0000000000E+01-4.430809793E+00+
*       -1.372756965E+02               0
GRID*               5996               02.0000000000E+01-7.444663671E+00+
*       -1.372599846E+02               0
GRID*               5997               02.0000000000E+01-2.906790834E+00+
*       -1.347354800E+02               0
GRID*               5998               02.0000000000E+01-4.383140558E+00+
*       -1.321963508E+02               0
GRID*               5999               02.0000000000E+01-7.295378152E+00+
*       -1.271225004E+02               0
GRID*               6000               02.0000000000E+01-1.023400903E+01+
*       -1.270985819E+02               0
GRID*               6001               02.0000000000E+01-8.720525565E+00+
*       -1.245979124E+02               0
GRID*               6002               02.0000000000E+01-5.834311701E+00+
*       -1.296463038E+02               0
GRID*               6003               02.0000000000E+01-7.357690472E+00+
*       -1.321732169E+02               0
GRID*               6004               02.0000000000E+01-1.320473678E+01+
*       -1.270448401E+02               0
GRID*               6005               02.0000000000E+01-1.454874341E+01+
*       -1.244882993E+02               0
GRID*               6006               02.0000000000E+01-8.906795530E+00+
*       -1.346931784E+02               0
GRID*               6007               02.0000000000E+01-1.035796667E+01+
*       -1.321431314E+02               0
GRID*               6008               02.0000000000E+01-1.177958937E+01+
*       -1.295694281E+02               0
GRID*               6009               02.0000000000E+01-1.592182337E+01+
*       -1.220030320E+02               0
GRID*               6010               02.0000000000E+01-1.303223640E+01+
*       -1.220887265E+02               0
GRID*               6011               02.0000000000E+01-1.987450158E+01+
*       -1.149448136E+02               0
GRID*               6012               02.0000000000E+01-2.132871335E+01+
*       -1.126097472E+02               0
GRID*               6013               02.0000000000E+01-1.862940557E+01+
*       -1.124877710E+02               0
GRID*               6014               02.0000000000E+01-1.715449271E+01+
*       -1.195630150E+02               0
GRID*               6015               02.0000000000E+01-1.853943143E+01+
*       -1.171727041E+02               0
GRID*               6016               02.0000000000E+01-1.579025507E+01+
*       -1.172131483E+02               0
GRID*               6017               02.0000000000E+01-2.288442944E+01+
*       -1.103969479E+02               0
GRID*               6018               02.0000000000E+01-2.441425473E+01+
*       -1.080482804E+02               0
GRID*               6019               02.0000000000E+01-2.161344263E+01+
*       -1.078040370E+02               0
GRID*               6020               02.0000000000E+01-2.601589890E+01+
*       -1.057151472E+02               0
GRID*               6021               02.0000000000E+01-2.757596961E+01+
*       -1.033414106E+02               0
GRID*               6022               02.0000000000E+01-2.470333863E+01+
*       -1.030816329E+02               0
GRID*               6023               02.0000000000E+01-2.915976793E+01+
*       -1.009881001E+02               0
GRID*               6024               02.0000000000E+01-3.073195136E+01+
*       -9.862316685E+01               0
GRID*               6025               02.0000000000E+01-2.783559276E+01+
*       -9.834296293E+01               0
GRID*               6026               02.0000000000E+01-3.555436334E+01+
*       -9.172360116E+01               0
GRID*               6027               02.0000000000E+01-3.391539327E+01+
*       -9.397427227E+01               0
GRID*               6028               02.0000000000E+01-3.721885945E+01+
*       -8.939591959E+01               0
GRID*               6029               02.0000000000E+01-3.427556786E+01+
*       -8.897401179E+01               0
GRID*               6030               02.0000000000E+01-3.231374549E+01+
*       -9.631244041E+01               0
GRID*               6031               02.0000000000E+01-3.100942397E+01+
*       -9.363986149E+01               0
GRID*               6032               02.0000000000E+01-1.152714866E+01+
*       -1.196038539E+02               0
GRID*               6033               02.0000000000E+01-1.296364744E+01+
*       -1.171440730E+02               0
GRID*               6034               02.0000000000E+01-1.008547975E+01+
*       -1.171444677E+02               0
GRID*               6035               02.0000000000E+01-1.015406870E+01+
*       -1.220891213E+02               0
GRID*               6036               02.0000000000E+01-7.215437828E+00+
*       -1.221130398E+02               0
GRID*               6037               02.0000000000E+011.6555115745E+00+
*       -1.220527410E+02               0
GRID*               6038               02.0000000000E+014.6426824489E+00+
*       -1.220298592E+02               0
GRID*               6039               02.0000000000E+01-5.723069169E+00+
*       -1.095409910E+02               0
GRID*               6040               02.0000000000E+01-7.215434516E+00+
*       -1.070474387E+02               0
GRID*               6041               02.0000000000E+01-4.284449186E+00+
*       -1.069637473E+02               0
GRID*               6042               02.0000000000E+01-1.309742289E+00+
*       -1.220821232E+02               0
GRID*               6043               02.0000000000E+011.8715919715E-01+
*       -1.195314553E+02               0
GRID*               6044               02.0000000000E+01-4.279994678E+00+
*       -1.220913342E+02               0
GRID*               6045               02.0000000000E+01-5.713537817E+00+
*       -1.195825431E+02               0
GRID*               6046               02.0000000000E+01-1.298480659E+00+
*       -1.170134866E+02               0
GRID*               6047               02.0000000000E+011.6667732046E+00+
*       -1.169841045E+02               0
GRID*               6048               02.0000000000E+01-8.612618939E+00+
*       -1.146251499E+02               0
GRID*               6049               02.0000000000E+01-1.008801651E+01+
*       -1.121546846E+02               0
GRID*               6050               02.0000000000E+01-7.178656925E+00+
*       -1.120951477E+02               0
GRID*               6051               02.0000000000E+01-7.176120159E+00+
*       -1.170849309E+02               0
GRID*               6052               02.0000000000E+01-4.240677009E+00+
*       -1.170632253E+02               0
GRID*               6053               02.0000000000E+01-2.761063001E+00+
*       -1.145158744E+02               0
GRID*               6054               02.0000000000E+01-4.247671595E+00+
*       -1.120114563E+02               0
GRID*               6055               02.0000000000E+01-1.305475245E+00+
*       -1.119617176E+02               0
GRID*               6056               02.0000000000E+01-2.722142177E+01+
*       -7.507308430E+01               0
GRID*               6057               02.0000000000E+01-2.877898269E+01+
*       -7.254688164E+01               0
GRID*               6058               02.0000000000E+01-2.571531875E+01+
*       -7.225089993E+01               0
GRID*               6059               02.0000000000E+01-2.561451236E+01+
*       -7.755202046E+01               0
GRID*               6060               02.0000000000E+01-2.259323521E+01+
*       -7.726043818E+01               0
GRID*               6061               02.0000000000E+01-2.404998974E+01+
*       -8.003535605E+01               0
GRID*               6062               02.0000000000E+01-2.867817630E+01+
*       -7.784800217E+01               0
GRID*               6063               02.0000000000E+01-3.012841302E+01+
*       -8.068162102E+01               0
GRID*               6064               02.0000000000E+01-3.173532243E+01+
*       -7.820268486E+01               0
GRID*               6065               02.0000000000E+01-3.154199555E+01+
*       -8.344555522E+01               0
GRID*               6066               02.0000000000E+01-2.848484943E+01+
*       -8.309087253E+01               0
GRID*               6067               02.0000000000E+01-3.291924797E+01+
*       -8.625056848E+01               0
GRID*               6068               02.0000000000E+01-3.125475185E+01+
*       -8.857825004E+01               0
GRID*               6069               02.0000000000E+01-3.456281156E+01+
*       -8.384131697E+01               0
GRID*               6070               02.0000000000E+01-2.804765625E+01+
*       -9.330671008E+01               0
GRID*               6071               02.0000000000E+01-2.511783286E+01+
*       -9.302310941E+01               0
GRID*               6072               02.0000000000E+01-2.647795280E+01+
*       -9.569442897E+01               0
GRID*               6073               02.0000000000E+01-2.964930403E+01+
*       -9.096854194E+01               0
GRID*               6074               02.0000000000E+01-2.829298414E+01+
*       -8.824509863E+01               0
GRID*               6075               02.0000000000E+01-1.922575975E+01+
*       -9.250178075E+01               0
GRID*               6076               02.0000000000E+01-2.061731025E+01+
*       -9.516803195E+01               0
GRID*               6077               02.0000000000E+01-2.215657891E+01+
*       -9.274457710E+01               0
GRID*               6078               02.0000000000E+01-1.780840515E+01+
*       -8.983799571E+01               0
GRID*               6079               02.0000000000E+01-1.934584236E+01+
*       -8.737711368E+01               0
GRID*               6080               02.0000000000E+01-1.638921911E+01+
*       -8.713678349E+01               0
GRID*               6081               02.0000000000E+01-1.626913650E+01+
*       -9.226145056E+01               0
GRID*               6082               02.0000000000E+01-1.332740753E+01+
*       -9.206782183E+01               0
GRID*               6083               02.0000000000E+01-1.474476213E+01+
*       -9.473160687E+01               0
GRID*               6084               02.0000000000E+01-2.372628236E+01+
*       -9.035685822E+01               0
GRID*               6085               02.0000000000E+01-2.246346349E+01+
*       -8.248482203E+01               0
GRID*               6086               02.0000000000E+01-2.548474064E+01+
*       -8.277640431E+01               0
GRID*               6087               02.0000000000E+01-2.091243535E+01+
*       -8.495088587E+01               0
GRID*               6088               02.0000000000E+01-2.233162139E+01+
*       -8.765209810E+01               0
GRID*               6089               02.0000000000E+01-1.947768446E+01+
*       -8.220983761E+01               0
GRID*               6090               02.0000000000E+01-2.529287535E+01+
*       -8.793063041E+01               0
GRID*               6091               02.0000000000E+01-2.689832317E+01+
*       -8.554033851E+01               0
GRID*               6092               02.0000000000E+01-1.321791822E+01+
*       -9.717892629E+01               0
GRID*               6093               02.0000000000E+01-1.615964719E+01+
*       -9.737255502E+01               0
GRID*               6094               02.0000000000E+01-1.029072690E+01+
*       -9.701832870E+01               0
GRID*               6095               02.0000000000E+01-1.170561196E+01+
*       -9.965927686E+01               0
GRID*               6096               02.0000000000E+01-8.700534221E+00+
*       -1.045912621E+02               0
GRID*               6097               02.0000000000E+01-1.013915420E+01+
*       -1.071685058E+02               0
GRID*               6098               02.0000000000E+01-1.020133727E+01+
*       -1.021055042E+02               0
GRID*               6099               02.0000000000E+01-1.312852859E+01+
*       -1.022661018E+02               0
GRID*               6100               02.0000000000E+01-7.277617583E+00+
*       -1.019844372E+02               0
GRID*               6101               02.0000000000E+01-2.490576938E+01+
*       -9.805936226E+01               0
GRID*               6102               02.0000000000E+01-2.199860805E+01+
*       -9.782024194E+01               0
GRID*               6103               02.0000000000E+01-2.335624801E+01+
*       -1.004687759E+02               0
GRID*               6104               02.0000000000E+01-1.906778889E+01+
*       -9.757744559E+01               0
GRID*               6105               02.0000000000E+01-1.754094498E+01+
*       -1.000247650E+02               0
GRID*               6106               02.0000000000E+01-1.434858616E+01+
*       -1.147537621E+02               0
GRID*               6107               02.0000000000E+01-1.296851023E+01+
*       -1.122626191E+02               0
GRID*               6108               02.0000000000E+01-1.153454821E+01+
*       -1.097326170E+02               0
GRID*               6109               02.0000000000E+01-1.579511786E+01+
*       -1.123316945E+02               0
GRID*               6110               02.0000000000E+01-1.724932963E+01+
*       -1.099966281E+02               0
GRID*               6111               02.0000000000E+01-1.601144734E+01+
*       -1.024298129E+02               0
GRID*               6112               02.0000000000E+01-1.891958904E+01+
*       -1.026347034E+02               0
GRID*               6113               02.0000000000E+01-1.450717265E+01+
*       -1.048760402E+02               0
GRID*               6114               02.0000000000E+01-1.301964792E+01+
*       -1.072764404E+02               0
GRID*               6115               02.0000000000E+01-1.590256666E+01+
*       -1.074401514E+02               0
GRID*               6116               02.0000000000E+01-2.179617730E+01+
*       -1.028425126E+02               0
GRID*               6117               02.0000000000E+01-2.026667966E+01+
*       -1.052475604E+02               0
GRID*               6118               02.0000000000E+01-1.873685437E+01+
*       -1.075962279E+02               0
GRID*               6119               02.0000000000E+01-2.115556847E+01+
*       -7.453034911E+01               0
GRID*               6120               02.0000000000E+01-1.959104585E+01+
*       -7.701368469E+01               0
GRID*               6121               02.0000000000E+01-1.971028895E+01+
*       -7.177342433E+01               0
GRID*               6122               02.0000000000E+01-1.827666157E+01+
*       -6.903235560E+01               0
GRID*               6123               02.0000000000E+01-1.671975172E+01+
*       -7.154252689E+01               0
GRID*               6124               02.0000000000E+01-2.271247831E+01+
*       -7.202017781E+01               0
GRID*               6125               02.0000000000E+01-2.427003923E+01+
*       -6.949397515E+01               0
GRID*               6126               02.0000000000E+01-1.687329356E+01+
*       -6.627738722E+01               0
GRID*               6127               02.0000000000E+01-1.546123083E+01+
*       -6.350984457E+01               0
GRID*               6128               02.0000000000E+01-1.387406161E+01+
*       -6.603391552E+01               0
GRID*               6129               02.0000000000E+01-1.986383079E+01+
*       -6.650828465E+01               0
GRID*               6130               02.0000000000E+01-2.278237543E+01+
*       -6.675123902E+01               0
GRID*               6131               02.0000000000E+01-2.578521586E+01+
*       -6.698196114E+01               0
GRID*               6132               02.0000000000E+01-2.137900742E+01+
*       -6.399627064E+01               0
GRID*               6133               02.0000000000E+01-1.412003254E+01+
*       -6.066045491E+01               0
GRID*               6134               02.0000000000E+01-1.269050113E+01+
*       -5.785232329E+01               0
GRID*               6135               02.0000000000E+01-1.103246748E+01+
*       -6.045824125E+01               0
GRID*               6136               02.0000000000E+01-2.005556048E+01+
*       -6.131721097E+01               0
GRID*               6137               02.0000000000E+01-2.297410512E+01+
*       -6.156016534E+01               0
GRID*               6138               02.0000000000E+01-1.711926448E+01+
*       -6.090392661E+01               0
GRID*               6139               02.0000000000E+01-1.871436218E+01+
*       -5.846782131E+01               0
GRID*               6140               02.0000000000E+01-1.122825092E+01+
*       -5.492643956E+01               0
GRID*               6141               02.0000000000E+01-9.752474337E+00+
*       -5.212505466E+01               0
GRID*               6142               02.0000000000E+01-8.127159495E+00+
*       -5.484872473E+01               0
GRID*               6143               02.0000000000E+01-1.773909727E+01+
*       -5.523769680E+01               0
GRID*               6144               02.0000000000E+01-2.067539326E+01+
*       -5.565098117E+01               0
GRID*               6145               02.0000000000E+01-1.431581598E+01+
*       -5.512865321E+01               0
GRID*               6146               02.0000000000E+01-1.627684705E+01+
*       -5.231181308E+01               0
GRID*               6147               02.0000000000E+01-9.616782214E+00+
*       -4.112365523E+01               0
GRID*               6148               02.0000000000E+01-1.106305970E+01+
*       -3.843101604E+01               0
GRID*               6149               02.0000000000E+01-8.096900934E+00+
*       -3.847528662E+01               0
GRID*               6150               02.0000000000E+01-1.114176813E+01+
*       -4.383032772E+01               0
GRID*               6151               02.0000000000E+01-1.275866109E+01+
*       -4.652577869E+01               0
GRID*               6152               02.0000000000E+01-1.419983394E+01+
*       -4.377483562E+01               0
GRID*               6153               02.0000000000E+01-8.175609363E+00+
*       -4.387459830E+01               0
GRID*               6154               02.0000000000E+01-5.160155812E+00+
*       -4.386357915E+01               0
GRID*               6155               02.0000000000E+01-6.685141732E+00+
*       -4.657025164E+01               0
GRID*               6156               02.0000000000E+01-1.433514633E+01+
*       -4.933652804E+01               0
GRID*               6157               02.0000000000E+01-1.775842762E+01+
*       -4.944557163E+01               0
GRID*               6158               02.0000000000E+01-8.175989096E+00+
*       -4.931430531E+01               0
GRID*               6159               02.0000000000E+01-5.160535546E+00+
*       -4.930328617E+01               0
GRID*               6160               02.0000000000E+01-1.127708052E+01+
*       -4.939202014E+01               0
GRID*               6161               02.0000000000E+01-7.481186412E+00+
*       -8.658106352E+01               0
GRID*               6162               02.0000000000E+01-1.045394669E+01+
*       -8.675595193E+01               0
GRID*               6163               02.0000000000E+01-9.010182332E+00+
*       -8.409324322E+01               0
GRID*               6164               02.0000000000E+01-4.513917312E+00+
*       -8.643126325E+01               0
GRID*               6165               02.0000000000E+01-5.957681675E+00+
*       -8.909397196E+01               0
GRID*               6166               02.0000000000E+01-1.341736226E+01+
*       -8.693289858E+01               0
GRID*               6167               02.0000000000E+01-1.495479947E+01+
*       -8.447201655E+01               0
GRID*               6168               02.0000000000E+01-1.188836634E+01+
*       -8.942071887E+01               0
GRID*               6169               02.0000000000E+01-1.804680802E+01+
*       -7.951616716E+01               0
GRID*               6170               02.0000000000E+01-1.660914127E+01+
*       -7.678607809E+01               0
GRID*               6171               02.0000000000E+01-1.649577988E+01+
*       -8.198223101E+01               0
GRID*               6172               02.0000000000E+01-1.352392303E+01+
*       -8.177834610E+01               0
GRID*               6173               02.0000000000E+01-1.516854984E+01+
*       -7.406746291E+01               0
GRID*               6174               02.0000000000E+01-1.373492247E+01+
*       -7.132639418E+01               0
GRID*               6175               02.0000000000E+01-1.054147907E+01+
*       -8.157661077E+01               0
GRID*               6176               02.0000000000E+01-7.568718788E+00+
*       -8.140172235E+01               0
GRID*               6177               02.0000000000E+01-1.208245948E+01+
*       -7.908682523E+01               0
GRID*               6178               02.0000000000E+01-1.362431201E+01+
*       -7.656994538E+01               0
GRID*               6179               02.0000000000E+01-1.064186806E+01+
*       -7.636821005E+01               0
GRID*               6180               02.0000000000E+01-9.454025111E+00+
*       -6.308460627E+01               0
GRID*               6181               02.0000000000E+01-8.024493708E+00+
*       -6.027647465E+01               0
GRID*               6182               02.0000000000E+01-1.089262389E+01+
*       -6.583261752E+01               0
GRID*               6183               02.0000000000E+01-1.230468662E+01+
*       -6.860016017E+01               0
GRID*               6184               02.0000000000E+01-7.884650115E+00+
*       -6.565085092E+01               0
GRID*               6185               02.0000000000E+01-4.891278791E+00+
*       -6.548601384E+01               0
GRID*               6186               02.0000000000E+01-6.329877568E+00+
*       -6.823402510E+01               0
GRID*               6187               02.0000000000E+014.4081926882E+00+
*       -8.605238253E+01               0
GRID*               6188               02.0000000000E+011.4315095580E+00+
*       -8.617139060E+01               0
GRID*               6189               02.0000000000E+012.8852759637E+00+
*       -8.352072554E+01               0
GRID*               6190               02.0000000000E+017.3850759118E+00+
*       -8.595053026E+01               0
GRID*               6191               02.0000000000E+015.9313095061E+00+
*       -8.860119532E+01               0
GRID*               6192               02.0000000000E+01-1.540909871E+00+
*       -8.629195266E+01               0
GRID*               6193               02.0000000000E+01-3.064414608E+00+
*       -8.377904421E+01               0
GRID*               6194               02.0000000000E+01-1.799314621E-02+
*       -8.882360965E+01               0
GRID*               6195               02.0000000000E+011.3589299941E+00+
*       -8.097023047E+01               0
GRID*               6196               02.0000000000E+014.3356131243E+00+
*       -8.085122240E+01               0
GRID*               6197               02.0000000000E+01-1.620297146E+00+
*       -8.110640316E+01               0
GRID*               6198               02.0000000000E+01-1.699599855E-01+
*       -7.843690002E+01               0
GRID*               6199               02.0000000000E+01-4.593304587E+00+
*       -8.124571376E+01               0
GRID*               6200               02.0000000000E+01-6.124601327E+00+
*       -7.872908130E+01               0
GRID*               6201               02.0000000000E+01-4.781460008E+00+
*       -7.078359848E+01               0
GRID*               6202               02.0000000000E+01-7.774831332E+00+
*       -7.094843555E+01               0
GRID*               6203               02.0000000000E+01-1.796034668E+00+
*       -7.063185078E+01               0
GRID*               6204               02.0000000000E+01-3.240988432E+00+
*       -7.334626124E+01               0
GRID*               6205               02.0000000000E+01-1.702375109E+00+
*       -7.588379313E+01               0
GRID*               6206               02.0000000000E+011.2768520315E+00+
*       -7.574762044E+01               0
GRID*               6207               02.0000000000E+01-4.687800449E+00+
*       -7.603554082E+01               0
GRID*               6208               02.0000000000E+01-1.075348474E+01+
*       -7.112509618E+01               0
GRID*               6209               02.0000000000E+01-9.205067180E+00+
*       -7.367466957E+01               0
GRID*               6210               02.0000000000E+01-7.663214650E+00+
*       -7.619154942E+01               0
GRID*               6211               02.0000000000E+01-3.637211139E+00+
*       -5.197671371E+01               0
GRID*               6212               02.0000000000E+01-2.146363775E+00+
*       -4.923266004E+01               0
GRID*               6213               02.0000000000E+01-5.101368549E+00+
*       -5.471700871E+01               0
GRID*               6214               02.0000000000E+01-6.577145134E+00+
*       -5.751839361E+01               0
GRID*               6215               02.0000000000E+01-2.087196778E+00+
*       -5.464638258E+01               0
GRID*               6216               02.0000000000E+019.1351118769E-01+
*       -5.454374008E+01               0
GRID*               6217               02.0000000000E+01-5.506462226E-01+
*       -5.728403508E+01               0
GRID*               6218               02.0000000000E+011.6324948484E+01+
*       -8.567010630E+01               0
GRID*               6219               02.0000000000E+011.3343363524E+01+
*       -8.576019774E+01               0
GRID*               6220               02.0000000000E+011.4799651180E+01+
*       -8.310961938E+01               0
GRID*               6221               02.0000000000E+011.9308436846E+01+
*       -8.558907701E+01               0
GRID*               6222               02.0000000000E+011.7852149190E+01+
*       -8.823965537E+01               0
GRID*               6223               02.0000000000E+011.0363129475E+01+
*       -8.584952693E+01               0
GRID*               6224               02.0000000000E+018.8400126569E+00+
*       -8.330071414E+01               0
GRID*               6225               02.0000000000E+011.1888426779E+01+
*       -8.841001385E+01               0
GRID*               6226               02.0000000000E+01-4.998702763E+00+
*       -6.014475862E+01               0
GRID*               6227               02.0000000000E+01-2.002277737E+00+
*       -6.000554456E+01               0
GRID*               6228               02.0000000000E+01-3.449626312E+00+
*       -6.276362559E+01               0
GRID*               6229               02.0000000000E+019.9843022838E-01+
*       -5.990290205E+01               0
GRID*               6230               02.0000000000E+013.9881038655E+00+
*       -5.978953320E+01               0
GRID*               6231               02.0000000000E+012.5364723508E+00+
*       -6.251104268E+01               0
GRID*               6232               02.0000000000E+011.3271017674E+01+
*       -8.053908493E+01               0
GRID*               6233               02.0000000000E+011.0290752096E+01+
*       -8.063857349E+01               0
GRID*               6234               02.0000000000E+011.1743703550E+01+
*       -7.797794760E+01               0
GRID*               6235               02.0000000000E+011.6252602634E+01+
*       -8.044899350E+01               0
GRID*               6236               02.0000000000E+017.3126985330E+00+
*       -8.073957681E+01               0
GRID*               6237               02.0000000000E+015.7863525634E+00+
*       -7.818908174E+01               0
GRID*               6238               02.0000000000E+011.0213339477E+01+
*       -7.540503029E+01               0
GRID*               6239               02.0000000000E+011.3193605055E+01+
*       -7.530554174E+01               0
GRID*               6240               02.0000000000E+017.2326981823E+00+
*       -7.551292570E+01               0
GRID*               6241               02.0000000000E+018.6825996868E+00+
*       -7.284051984E+01               0
GRID*               6242               02.0000000000E+014.2556127736E+00+
*       -7.562457129E+01               0
GRID*               6243               02.0000000000E+012.7231976504E+00+
*       -7.307146439E+01               0
GRID*               6244               02.0000000000E+014.0778757216E+00+
*       -6.510010577E+01               0
GRID*               6245               02.0000000000E+011.0882020844E+00+
*       -6.521347462E+01               0
GRID*               6246               02.0000000000E+017.0618569334E+00+
*       -6.498680178E+01               0
GRID*               6247               02.0000000000E+015.6135866670E+00+
*       -6.768923372E+01               0
GRID*               6248               02.0000000000E+017.1497631357E+00+
*       -7.026217249E+01               0
GRID*               6249               02.0000000000E+011.0130404430E+01+
*       -7.015427708E+01               0
GRID*               6250               02.0000000000E+014.1657819238E+00+
*       -7.037547648E+01               0
GRID*               6251               02.0000000000E+01-1.894853765E+00+
*       -6.534679977E+01               0
GRID*               6252               02.0000000000E+01-3.534503944E-01+
*       -6.793586287E+01               0
GRID*               6253               02.0000000000E+011.1870211817E+00+
*       -7.049852563E+01               0
GRID*               6254               02.0000000000E+014.3919826352E+01+
*       -1.474169222E+02               0
GRID*               6255               02.0000000000E+014.0889523322E+01+
*       -1.474169222E+02               0
GRID*               6256               02.0000000000E+014.6947163986E+01+
*       -1.474116260E+02               0
GRID*               6257               02.0000000000E+014.9977467016E+01+
*       -1.474116260E+02               0
GRID*               6258               02.0000000000E+014.5412444883E+01+
*       -1.448285482E+02               0
GRID*               6259               02.0000000000E+014.3877567832E+01+
*       -1.422447222E+02               0
GRID*               6260               02.0000000000E+014.6904905466E+01+
*       -1.422394260E+02               0
GRID*               6261               02.0000000000E+015.3005124961E+01+
*       -1.474071713E+02               0
GRID*               6262               02.0000000000E+015.6035427992E+01+
*       -1.474071713E+02               0
GRID*               6263               02.0000000000E+014.8395016113E+01+
*       -1.396459667E+02               0
GRID*               6264               02.0000000000E+014.9929893164E+01+
*       -1.422297927E+02               0
GRID*               6265               02.0000000000E+014.6859564549E+01+
*       -1.370600532E+02               0
GRID*               6266               02.0000000000E+014.9884552247E+01+
*       -1.370504199E+02               0
GRID*               6267               02.0000000000E+015.1467440462E+01+
*       -1.448187973E+02               0
GRID*               6268               02.0000000000E+015.2957551109E+01+
*       -1.422253380E+02               0
GRID*               6269               02.0000000000E+014.2263268266E+01+
*       -1.293218944E+02               0
GRID*               6270               02.0000000000E+014.3793219051E+01+
*       -1.318971481E+02               0
GRID*               6271               02.0000000000E+014.0775140999E+01+
*       -1.319203313E+02               0
GRID*               6272               02.0000000000E+014.0731015842E+01+
*       -1.267425506E+02               0
GRID*               6273               02.0000000000E+014.3749093894E+01+
*       -1.267193673E+02               0
GRID*               6274               02.0000000000E+014.5327096233E+01+
*       -1.344800458E+02               0
GRID*               6275               02.0000000000E+014.3837560100E+01+
*       -1.370755925E+02               0
GRID*               6276               02.0000000000E+014.6815223500E+01+
*       -1.318816088E+02               0
GRID*               6277               02.0000000000E+013.1805823546E+01+
*       -1.474290956E+02               0
GRID*               6278               02.0000000000E+012.8775520516E+01+
*       -1.474290956E+02               0
GRID*               6279               02.0000000000E+013.4832246912E+01+
*       -1.474226741E+02               0
GRID*               6280               02.0000000000E+013.7862549943E+01+
*       -1.474226741E+02               0
GRID*               6281               02.0000000000E+013.3304737125E+01+
*       -1.448517697E+02               0
GRID*               6282               02.0000000000E+013.1777065168E+01+
*       -1.422803731E+02               0
GRID*               6283               02.0000000000E+013.4803488534E+01+
*       -1.422739516E+02               0
GRID*               6284               02.0000000000E+014.2345851587E+01+
*       -1.396665138E+02               0
GRID*               6285               02.0000000000E+014.0813383272E+01+
*       -1.370865063E+02               0
GRID*               6286               02.0000000000E+014.0853391004E+01+
*       -1.422556360E+02               0
GRID*               6287               02.0000000000E+013.9358133870E+01+
*       -1.448395963E+02               0
GRID*               6288               02.0000000000E+013.7826417625E+01+
*       -1.422613879E+02               0
GRID*               6289               02.0000000000E+013.9285012760E+01+
*       -1.345140051E+02               0
GRID*               6290               02.0000000000E+013.7755061975E+01+
*       -1.319387514E+02               0
GRID*               6291               02.0000000000E+013.7793304247E+01+
*       -1.371049264E+02               0
GRID*               6292               02.0000000000E+013.6298745668E+01+
*       -1.396899913E+02               0
GRID*               6293               02.0000000000E+013.4770375156E+01+
*       -1.371174901E+02               0
GRID*               6294               02.0000000000E+013.3094522729E+01+
*       -1.138912996E+02               0
GRID*               6295               02.0000000000E+013.1567436536E+01+
*       -1.113219473E+02               0
GRID*               6296               02.0000000000E+013.4571886171E+01+
*       -1.112766309E+02               0
GRID*               6297               02.0000000000E+013.9203096589E+01+
*       -1.241707200E+02               0
GRID*               6298               02.0000000000E+013.7672678733E+01+
*       -1.215953466E+02               0
GRID*               6299               02.0000000000E+014.0686423615E+01+
*       -1.215646502E+02               0
GRID*               6300               02.0000000000E+013.7717270961E+01+
*       -1.267732470E+02               0
GRID*               6301               02.0000000000E+013.4618115989E+01+
*       -1.164552415E+02               0
GRID*               6302               02.0000000000E+013.1613666354E+01+
*       -1.165005580E+02               0
GRID*               6303               02.0000000000E+013.6146632687E+01+
*       -1.190268884E+02               0
GRID*               6304               02.0000000000E+013.4663305661E+01+
*       -1.216329581E+02               0
GRID*               6305               02.0000000000E+013.7627489061E+01+
*       -1.164176300E+02               0
GRID*               6306               02.0000000000E+012.2719109149E+01+
*       -1.474359651E+02               0
GRID*               6307               02.0000000000E+012.5749412179E+01+
*       -1.474359651E+02               0
GRID*               6308               02.0000000000E+011.8168687682E+01+
*       -1.397735283E+02               0
GRID*               6309               02.0000000000E+011.9681954450E+01+
*       -1.423225089E+02               0
GRID*               6310               02.0000000000E+011.6654493351E+01+
*       -1.372230050E+02               0
GRID*               6311               02.0000000000E+011.9674507689E+01+
*       -1.372072765E+02               0
GRID*               6312               02.0000000000E+012.1200651983E+01+
*       -1.448795742E+02               0
GRID*               6313               02.0000000000E+012.2707399553E+01+
*       -1.423148650E+02               0
GRID*               6314               02.0000000000E+012.1176018057E+01+
*       -1.346341827E+02               0
GRID*               6315               02.0000000000E+011.9660201327E+01+
*       -1.320814846E+02               0
GRID*               6316               02.0000000000E+012.2675906025E+01+
*       -1.320589140E+02               0
GRID*               6317               02.0000000000E+012.7252205423E+01+
*       -1.448650607E+02               0
GRID*               6318               02.0000000000E+012.5728546590E+01+
*       -1.423003312E+02               0
GRID*               6319               02.0000000000E+012.8754654927E+01+
*       -1.422934616E+02               0
GRID*               6320               02.0000000000E+012.2690212388E+01+
*       -1.371847059E+02               0
GRID*               6321               02.0000000000E+012.4209849057E+01+
*       -1.397432659E+02               0
GRID*               6322               02.0000000000E+012.5711359425E+01+
*       -1.371701721E+02               0
GRID*               6323               02.0000000000E+013.0253406336E+01+
*       -1.397156435E+02               0
GRID*               6324               02.0000000000E+013.1751229451E+01+
*       -1.371363377E+02               0
GRID*               6325               02.0000000000E+012.8728819209E+01+
*       -1.371494263E+02               0
GRID*               6326               02.0000000000E+013.6228878576E+01+
*       -1.293697143E+02               0
GRID*               6327               02.0000000000E+013.4700959323E+01+
*       -1.267978836E+02               0
GRID*               6328               02.0000000000E+013.4738750337E+01+
*       -1.319633880E+02               0
GRID*               6329               02.0000000000E+013.3245788030E+01+
*       -1.345512728E+02               0
GRID*               6330               02.0000000000E+013.1719604631E+01+
*       -1.319822357E+02               0
GRID*               6331               02.0000000000E+013.0131227649E+01+
*       -1.191060337E+02               0
GRID*               6332               02.0000000000E+012.8607634388E+01+
*       -1.165420918E+02               0
GRID*               6333               02.0000000000E+013.1651475617E+01+
*       -1.216649260E+02               0
GRID*               6334               02.0000000000E+012.8645443651E+01+
*       -1.217064598E+02               0
GRID*               6335               02.0000000000E+013.3177521663E+01+
*       -1.242333842E+02               0
GRID*               6336               02.0000000000E+013.1689129278E+01+
*       -1.268298515E+02               0
GRID*               6337               02.0000000000E+012.4171866750E+01+
*       -1.294766793E+02               0
GRID*               6338               02.0000000000E+012.5687683480E+01+
*       -1.320293774E+02               0
GRID*               6339               02.0000000000E+012.2654167829E+01+
*       -1.269212978E+02               0
GRID*               6340               02.0000000000E+012.5665945283E+01+
*       -1.268917612E+02               0
GRID*               6341               02.0000000000E+012.7156968991E+01+
*       -1.243008659E+02               0
GRID*               6342               02.0000000000E+012.5636721023E+01+
*       -1.217419736E+02               0
GRID*               6343               02.0000000000E+012.8674667911E+01+
*       -1.268562474E+02               0
GRID*               6344               02.0000000000E+012.7209182540E+01+
*       -1.345908663E+02               0
GRID*               6345               02.0000000000E+012.8705143264E+01+
*       -1.320086317E+02               0
GRID*               6346               02.0000000000E+013.0198105571E+01+
*       -1.294207468E+02               0
GRID*               6347               02.0000000000E+01-7.333329417E+00+
*       -9.687240537E+01               0
GRID*               6348               02.0000000000E+01-4.378678076E+00+
*       -9.674866141E+01               0
GRID*               6349               02.0000000000E+01-5.823769293E+00+
*       -9.937493530E+01               0
GRID*               6350               02.0000000000E+01-8.845635683E+00+
*       -9.439205480E+01               0
GRID*               6351               02.0000000000E+01-1.036399197E+01+
*       -9.189087518E+01               0
GRID*               6352               02.0000000000E+01-7.406594487E+00+
*       -9.174495185E+01               0
GRID*               6353               02.0000000000E+01-4.439325387E+00+
*       -9.159515159E+01               0
GRID*               6354               02.0000000000E+01-2.922969260E+00+
*       -9.412133682E+01               0
GRID*               6355               02.0000000000E+01-1.474056448E+00+
*       -9.147035693E+01               0
GRID*               6356               02.0000000000E+01-1.413409137E+00+
*       -9.662386676E+01               0
GRID*               6357               02.0000000000E+011.5525155951E+00+
*       -9.651956458E+01               0
GRID*               6358               02.0000000000E+019.6806779152E-02+
*       -9.914688916E+01               0
GRID*               6359               02.0000000000E+014.5253410042E+00+
*       -9.641443959E+01               0
GRID*               6360               02.0000000000E+017.5020439948E+00+
*       -9.632581658E+01               0
GRID*               6361               02.0000000000E+016.0394345016E+00+
*       -9.895396399E+01               0
GRID*               6362               02.0000000000E+013.0151250883E+00+
*       -9.389141718E+01               0
GRID*               6363               02.0000000000E+011.4983629809E+00+
*       -9.134979488E+01               0
GRID*               6364               02.0000000000E+014.4711883900E+00+
*       -9.124466989E+01               0
GRID*               6365               02.0000000000E+012.2423341520E+01+
*       -9.593142470E+01               0
GRID*               6366               02.0000000000E+012.5414401309E+01+
*       -9.586534862E+01               0
GRID*               6367               02.0000000000E+012.3949301108E+01+
*       -9.849994348E+01               0
GRID*               6368               02.0000000000E+011.0481079106E+01+
*       -9.623512679E+01               0
GRID*               6369               02.0000000000E+011.3464504209E+01+
*       -9.615682988E+01               0
GRID*               6370               02.0000000000E+011.1999562595E+01+
*       -9.878704407E+01               0
GRID*               6371               02.0000000000E+018.9669856089E+00+
*       -9.369560239E+01               0
GRID*               6372               02.0000000000E+017.4480716135E+00+
*       -9.114281761E+01               0
GRID*               6373               02.0000000000E+011.0427106725E+01+
*       -9.105212782E+01               0
GRID*               6374               02.0000000000E+011.3407340774E+01+
*       -9.096279863E+01               0
GRID*               6375               02.0000000000E+011.9435442568E+01+
*       -9.600431541E+01               0
GRID*               6376               02.0000000000E+012.0900542769E+01+
*       -9.336972056E+01               0
GRID*               6377               02.0000000000E+011.6447815757E+01+
*       -9.607567922E+01               0
GRID*               6378               02.0000000000E+011.4929332269E+01+
*       -9.352376193E+01               0
GRID*               6379               02.0000000000E+011.7970614508E+01+
*       -9.863738336E+01               0
GRID*               6380               02.0000000000E+011.6390652323E+01+
*       -9.088164797E+01               0
GRID*               6381               02.0000000000E+011.9374140685E+01+
*       -9.080061867E+01               0
GRID*               6382               02.0000000000E+012.2362039636E+01+
*       -9.072772796E+01               0
GRID*               6383               02.0000000000E+014.5703322255E+00+
*       -1.015724199E+02               0
GRID*               6384               02.0000000000E+017.5470352161E+00+
*       -1.014837969E+02               0
GRID*               6385               02.0000000000E+013.1084718017E+00+
*       -1.041871173E+02               0
GRID*               6386               02.0000000000E+014.6064965049E+00+
*       -1.067031423E+02               0
GRID*               6387               02.0000000000E+011.6370353665E+00+
*       -1.067880068E+02               0
GRID*               6388               02.0000000000E+011.6008710871E+00+
*       -1.016572844E+02               0
GRID*               6389               02.0000000000E+01-1.365053645E+00+
*       -1.017615866E+02               0
GRID*               6390               02.0000000000E+011.7148811517E-01+
*       -1.093806657E+02               0
GRID*               6391               02.0000000000E+011.6580967091E+00+
*       -1.118850838E+02               0
GRID*               6392               02.0000000000E+01-4.322966243E+00+
*       -1.018606932E+02               0
GRID*               6393               02.0000000000E+01-2.818901935E+00+
*       -1.043710884E+02               0
GRID*               6394               02.0000000000E+01-1.326536588E+00+
*       -1.068646407E+02               0
GRID*               6395               02.0000000000E+016.1390283866E+00+
*       -1.194566834E+02               0
GRID*               6396               02.0000000000E+017.6292977747E+00+
*       -1.219844694E+02               0
GRID*               6397               02.0000000000E+013.1556689119E+00+
*       -1.144071846E+02               0
GRID*               6398               02.0000000000E+014.6326322725E+00+
*       -1.118261326E+02               0
GRID*               6399               02.0000000000E+014.6413087681E+00+
*       -1.169251533E+02               0
GRID*               6400               02.0000000000E+017.6279240939E+00+
*       -1.168797635E+02               0
GRID*               6401               02.0000000000E+011.6499849394E+01+
*       -1.012615958E+02               0
GRID*               6402               02.0000000000E+011.9487476205E+01+
*       -1.011902320E+02               0
GRID*               6403               02.0000000000E+011.5028672014E+01+
*       -1.038822586E+02               0
GRID*               6404               02.0000000000E+011.6540591444E+01+
*       -1.064272177E+02               0
GRID*               6405               02.0000000000E+011.3552552367E+01+
*       -1.064950319E+02               0
GRID*               6406               02.0000000000E+011.3511810317E+01+
*       -1.013294100E+02               0
GRID*               6407               02.0000000000E+011.0528385215E+01+
*       -1.014077069E+02               0
GRID*               6408               02.0000000000E+019.1156707076E+00+
*       -1.142944198E+02               0
GRID*               6409               02.0000000000E+011.0613390326E+01+
*       -1.168259500E+02               0
GRID*               6410               02.0000000000E+016.1129461333E+00+
*       -1.092340755E+02               0
GRID*               6411               02.0000000000E+017.5843825685E+00+
*       -1.066331860E+02               0
GRID*               6412               02.0000000000E+017.6105183362E+00+
*       -1.117561763E+02               0
GRID*               6413               02.0000000000E+011.0595984568E+01+
*       -1.117023628E+02               0
GRID*               6414               02.0000000000E+011.2077651997E+01+
*       -1.091020551E+02               0
GRID*               6415               02.0000000000E+011.3582804368E+01+
*       -1.116402986E+02               0
GRID*               6416               02.0000000000E+019.0592829385E+00+
*       -1.040261628E+02               0
GRID*               6417               02.0000000000E+011.0565732567E+01+
*       -1.065570960E+02               0
GRID*               6418               02.0000000000E+011.3636172168E+01+
*       -1.321330042E+02               0
GRID*               6419               02.0000000000E+011.2133324442E+01+
*       -1.295941689E+02               0
GRID*               6420               02.0000000000E+011.5146253852E+01+
*       -1.346796711E+02               0
GRID*               6421               02.0000000000E+011.6650231675E+01+
*       -1.321100863E+02               0
GRID*               6422               02.0000000000E+019.1310110726E+00+
*       -1.245199997E+02               0
GRID*               6423               02.0000000000E+011.0627357010E+01+
*       -1.219468240E+02               0
GRID*               6424               02.0000000000E+011.0627784601E+01+
*       -1.270536364E+02               0
GRID*               6425               02.0000000000E+011.3634610149E+01+
*       -1.270228869E+02               0
GRID*               6426               02.0000000000E+012.5470172933E+01+
*       -1.010599985E+02               0
GRID*               6427               02.0000000000E+012.2479113145E+01+
*       -1.011260746E+02               0
GRID*               6428               02.0000000000E+012.8466243430E+01+
*       -1.010020635E+02               0
GRID*               6429               02.0000000000E+012.6996055467E+01+
*       -1.036281947E+02               0
GRID*               6430               02.0000000000E+012.8518264088E+01+
*       -1.061902840E+02               0
GRID*               6431               02.0000000000E+012.5522193591E+01+
*       -1.062482190E+02               0
GRID*               6432               02.0000000000E+013.0044601095E+01+
*       -1.087587934E+02               0
GRID*               6433               02.0000000000E+012.8567237653E+01+
*       -1.113734622E+02               0
GRID*               6434               02.0000000000E+013.1518462971E+01+
*       -1.061387691E+02               0
GRID*               6435               02.0000000000E+011.8150119643E+01+
*       -1.295348176E+02               0
GRID*               6436               02.0000000000E+011.6637388136E+01+
*       -1.269848405E+02               0
GRID*               6437               02.0000000000E+011.9647357788E+01+
*       -1.269562387E+02               0
GRID*               6438               02.0000000000E+011.2120695818E+01+
*       -1.193648162E+02               0
GRID*               6439               02.0000000000E+011.3608442432E+01+
*       -1.167794725E+02               0
GRID*               6440               02.0000000000E+011.5131848295E+01+
*       -1.244443079E+02               0
GRID*               6441               02.0000000000E+011.3622409116E+01+
*       -1.219003465E+02               0
GRID*               6442               02.0000000000E+011.6625187103E+01+
*       -1.218623001E+02               0
GRID*               6443               02.0000000000E+012.1141436322E+01+
*       -1.243713206E+02               0
GRID*               6444               02.0000000000E+012.2632256213E+01+
*       -1.217828269E+02               0
GRID*               6445               02.0000000000E+011.9625446173E+01+
*       -1.218177678E+02               0
GRID*               6446               02.0000000000E+012.7087809039E+01+
*       -1.139833109E+02               0
GRID*               6447               02.0000000000E+012.5564973598E+01+
*       -1.114201569E+02               0
GRID*               6448               02.0000000000E+012.5605370334E+01+
*       -1.165887866E+02               0
GRID*               6449               02.0000000000E+012.4120730874E+01+
*       -1.191884208E+02               0
GRID*               6450               02.0000000000E+012.2600905525E+01+
*       -1.166296399E+02               0
GRID*               6451               02.0000000000E+012.1008348031E+01+
*       -1.037502870E+02               0
GRID*               6452               02.0000000000E+012.2524719877E+01+
*       -1.063025480E+02               0
GRID*               6453               02.0000000000E+011.9533082938E+01+
*       -1.063667053E+02               0
GRID*               6454               02.0000000000E+012.4046928499E+01+
*       -1.088646373E+02               0
GRID*               6455               02.0000000000E+012.2567499885E+01+
*       -1.114744859E+02               0
GRID*               6456               02.0000000000E+011.5094622404E+01+
*       -1.141849453E+02               0
GRID*               6457               02.0000000000E+011.6601927896E+01+
*       -1.167238115E+02               0
GRID*               6458               02.0000000000E+011.6576289832E+01+
*       -1.115846377E+02               0
GRID*               6459               02.0000000000E+011.8056963291E+01+
*       -1.089794786E+02               0
GRID*               6460               02.0000000000E+011.9568781326E+01+
*       -1.115241253E+02               0
GRID*               6461               02.0000000000E+011.8116006994E+01+
*       -1.192738064E+02               0
GRID*               6462               02.0000000000E+011.9602186966E+01+
*       -1.166792793E+02               0
GRID*               6463               02.0000000000E+012.1086826426E+01+
*       -1.140796450E+02               0
GRID*               6464               02.0000000000E+012.2286544237E+01+
*       -8.550190942E+01               0
GRID*               6465               02.0000000000E+012.5267924785E+01+
*       -8.542138620E+01               0
GRID*               6466               02.0000000000E+012.3817018099E+01+
*       -8.807810286E+01               0
GRID*               6467               02.0000000000E+012.0759343531E+01+
*       -8.293236036E+01               0
GRID*               6468               02.0000000000E+011.9228672065E+01+
*       -8.035498760E+01               0
GRID*               6469               02.0000000000E+011.7700038559E+01+
*       -7.778445315E+01               0
GRID*               6470               02.0000000000E+012.2206779456E+01+
*       -8.026782001E+01               0
GRID*               6471               02.0000000000E+011.3106883763E+01+
*       -7.004838288E+01               0
GRID*               6472               02.0000000000E+011.1574047212E+01+
*       -6.747003554E+01               0
GRID*               6473               02.0000000000E+011.6082313774E+01+
*       -6.994778390E+01               0
GRID*               6474               02.0000000000E+011.4638670992E+01+
*       -7.263202544E+01               0
GRID*               6475               02.0000000000E+011.6169035066E+01+
*       -7.520494275E+01               0
GRID*               6476               02.0000000000E+011.9145104497E+01+
*       -7.511093685E+01               0
GRID*               6477               02.0000000000E+011.0040741214E+01+
*       -6.487890723E+01               0
GRID*               6478               02.0000000000E+011.3017220547E+01+
*       -6.477301303E+01               0
GRID*               6479               02.0000000000E+018.5050302682E+00+
*       -6.228977928E+01               0
GRID*               6480               02.0000000000E+016.9700169248E+00+
*       -5.968657992E+01               0
GRID*               6481               02.0000000000E+015.4319748024E+00+
*       -5.707843929E+01               0
GRID*               6482               02.0000000000E+019.9489012050E+00+
*       -5.957868536E+01               0
GRID*               6483               02.0000000000E+013.8972393763E+00+
*       -5.445840520E+01               0
GRID*               6484               02.0000000000E+016.8791524356E+00+
*       -5.435545191E+01               0
GRID*               6485               02.0000000000E+012.3606888209E+00+
*       -5.182075270E+01               0
GRID*               6486               02.0000000000E+01-6.625516449E+00+
*       -3.581078152E+01               0
GRID*               6487               02.0000000000E+01-8.077578506E+00+
*       -3.316908247E+01               0
GRID*               6488               02.0000000000E+01-5.159916531E+00+
*       -3.319721657E+01               0
GRID*               6489               02.0000000000E+01-5.179238958E+00+
*       -3.850342072E+01               0
GRID*               6490               02.0000000000E+01-2.222217300E+00+
*       -3.849433269E+01               0
GRID*               6491               02.0000000000E+01-3.693601785E+00+
*       -4.115883779E+01               0
GRID*               6492               02.0000000000E+018.3224550093E-01+
*       -4.918157019E+01               0
GRID*               6493               02.0000000000E+013.8159736895E+00+
*       -4.909623530E+01               0
GRID*               6494               02.0000000000E+01-6.910789060E-01+
*       -4.650814264E+01               0
GRID*               6495               02.0000000000E+01-2.203134154E+00+
*       -4.385449113E+01               0
GRID*               6496               02.0000000000E+017.7547512131E-01+
*       -4.380340128E+01               0
GRID*               6497               02.0000000000E+013.6042799233E+01+
*       -1.086461668E+02               0
GRID*               6498               02.0000000000E+013.4511952508E+01+
*       -1.060735334E+02               0
GRID*               6499               02.0000000000E+013.7509951763E+01+
*       -1.060124216E+02               0
GRID*               6500               02.0000000000E+013.7569885426E+01+
*       -1.112155191E+02               0
GRID*               6501               02.0000000000E+014.0573430571E+01+
*       -1.111606955E+02               0
GRID*               6502               02.0000000000E+013.9102517509E+01+
*       -1.137911596E+02               0
GRID*               6503               02.0000000000E+013.2985615501E+01+
*       -1.035050239E+02               0
GRID*               6504               02.0000000000E+013.1455528860E+01+
*       -1.009326484E+02               0
GRID*               6505               02.0000000000E+013.4449018397E+01+
*       -1.008674127E+02               0
GRID*               6506               02.0000000000E+012.5343420184E+01+
*       -9.064720474E+01               0
GRID*               6507               02.0000000000E+012.8328647820E+01+
*       -9.057267492E+01               0
GRID*               6508               02.0000000000E+012.6873669357E+01+
*       -9.322230003E+01               0
GRID*               6509               02.0000000000E+012.9929646326E+01+
*       -9.836445225E+01               0
GRID*               6510               02.0000000000E+012.8399628945E+01+
*       -9.579081880E+01               0
GRID*               6511               02.0000000000E+013.1388914374E+01+
*       -9.572140366E+01               0
GRID*               6512               02.0000000000E+015.1373446591E+01+
*       -1.344511768E+02               0
GRID*               6513               02.0000000000E+015.2908898156E+01+
*       -1.370370902E+02               0
GRID*               6514               02.0000000000E+014.9836772334E+01+
*       -1.318595908E+02               0
GRID*               6515               02.0000000000E+015.2861118243E+01+
*       -1.318462611E+02               0
GRID*               6516               02.0000000000E+015.9063743195E+01+
*       -1.474037301E+02               0
GRID*               6517               02.0000000000E+016.2094046225E+01+
*       -1.474037301E+02               0
GRID*               6518               02.0000000000E+015.4446182652E+01+
*       -1.396287263E+02               0
GRID*               6519               02.0000000000E+015.5983729950E+01+
*       -1.422177309E+02               0
GRID*               6520               02.0000000000E+015.5935076996E+01+
*       -1.370294832E+02               0
GRID*               6521               02.0000000000E+015.7523413611E+01+
*       -1.448109014E+02               0
GRID*               6522               02.0000000000E+015.9012045153E+01+
*       -1.422142897E+02               0
GRID*               6523               02.0000000000E+014.8302895152E+01+
*       -1.292766931E+02               0
GRID*               6524               02.0000000000E+014.6765734140E+01+
*       -1.266859208E+02               0
GRID*               6525               02.0000000000E+014.9787282974E+01+
*       -1.266639027E+02               0
GRID*               6526               02.0000000000E+014.0631034206E+01+
*       -1.163628065E+02               0
GRID*               6527               02.0000000000E+014.5233481717E+01+
*       -1.241065770E+02               0
GRID*               6528               02.0000000000E+014.3696558193E+01+
*       -1.215194148E+02               0
GRID*               6529               02.0000000000E+014.6713198439E+01+
*       -1.214859682E+02               0
GRID*               6530               02.0000000000E+014.2166140337E+01+
*       -1.189440414E+02               0
GRID*               6531               02.0000000000E+014.3641168785E+01+
*       -1.163175710E+02               0
GRID*               6532               02.0000000000E+014.5114164103E+01+
*       -1.136746772E+02               0
GRID*               6533               02.0000000000E+014.3571354832E+01+
*       -1.110872142E+02               0
GRID*               6534               02.0000000000E+014.6579456281E+01+
*       -1.110255553E+02               0
GRID*               6535               02.0000000000E+014.6649270234E+01+
*       -1.162559122E+02               0
GRID*               6536               02.0000000000E+013.5904251398E+01+
*       -9.821563695E+01               0
GRID*               6537               02.0000000000E+013.4370142024E+01+
*       -9.564192049E+01               0
GRID*               6538               02.0000000000E+013.7355461666E+01+
*       -9.556252033E+01               0
GRID*               6539               02.0000000000E+013.7434338039E+01+
*       -1.007880125E+02               0
GRID*               6540               02.0000000000E+014.0424747753E+01+
*       -1.007093567E+02               0
GRID*               6541               02.0000000000E+013.8969514752E+01+
*       -1.033611324E+02               0
GRID*               6542               02.0000000000E+014.2038722749E+01+
*       -1.085115736E+02               0
GRID*               6543               02.0000000000E+014.0500361477E+01+
*       -1.059337658E+02               0
GRID*               6544               02.0000000000E+014.3498285738E+01+
*       -1.058602844E+02               0
GRID*               6545               02.0000000000E+014.8194801944E+01+
*       -1.188541269E+02               0
GRID*               6546               02.0000000000E+014.9731725468E+01+
*       -1.214412891E+02               0
GRID*               6547               02.0000000000E+014.9667797262E+01+
*       -1.162112331E+02               0
GRID*               6548               02.0000000000E+015.1275746538E+01+
*       -1.240459205E+02               0
GRID*               6549               02.0000000000E+015.2812907550E+01+
*       -1.266366928E+02               0
GRID*               6550               02.0000000000E+015.2757350043E+01+
*       -1.214140792E+02               0
GRID*               6551               02.0000000000E+015.4352416152E+01+
*       -1.292405167E+02               0
GRID*               6552               02.0000000000E+015.5889090409E+01+
*       -1.318321028E+02               0
GRID*               6553               02.0000000000E+015.5840879716E+01+
*       -1.266225345E+02               0
GRID*               6554               02.0000000000E+015.7425651610E+01+
*       -1.344306800E+02               0
GRID*               6555               02.0000000000E+015.8962936106E+01+
*       -1.370223161E+02               0
GRID*               6556               02.0000000000E+015.8916949520E+01+
*       -1.318249356E+02               0
GRID*               6557               02.0000000000E+016.5124520606E+01+
*       -1.474013380E+02               0
GRID*               6558               02.0000000000E+016.8154823637E+01+
*       -1.474013380E+02               0
GRID*               6559               02.0000000000E+016.0500957118E+01+
*       -1.396169176E+02               0
GRID*               6560               02.0000000000E+016.2040640779E+01+
*       -1.422100880E+02               0
GRID*               6561               02.0000000000E+016.1991531732E+01+
*       -1.370181144E+02               0
GRID*               6562               02.0000000000E+016.3582203195E+01+
*       -1.448050680E+02               0
GRID*               6563               02.0000000000E+016.5071115160E+01+
*       -1.422076959E+02               0
GRID*               6564               02.0000000000E+011.2924592392E+01+
*       -5.947882208E+01               0
GRID*               6565               02.0000000000E+011.5897283634E+01+
*       -5.937815387E+01               0
GRID*               6566               02.0000000000E+011.4456605790E+01+
*       -6.208121652E+01               0
GRID*               6567               02.0000000000E+011.1389579049E+01+
*       -5.687562272E+01               0
GRID*               6568               02.0000000000E+019.8542025251E+00+
*       -5.426147686E+01               0
GRID*               6569               02.0000000000E+018.3194670990E+00+
*       -5.164144277E+01               0
GRID*               6570               02.0000000000E+011.2829893712E+01+
*       -5.416161358E+01               0
GRID*               6571               02.0000000000E+016.7831274390E+00+
*       -4.901678574E+01               0
GRID*               6572               02.0000000000E+019.7581775286E+00+
*       -4.892281070E+01               0
GRID*               6573               02.0000000000E+015.2546841191E+00+
*       -4.637760323E+01               0
GRID*               6574               02.0000000000E+01-3.737634439E+00+
*       -3.055628178E+01               0
GRID*               6575               02.0000000000E+01-5.219850962E+00+
*       -2.797398831E+01               0
GRID*               6576               02.0000000000E+01-2.345506813E+00+
*       -2.797475257E+01               0
GRID*               6577               02.0000000000E+01-2.285572381E+00+
*       -3.319798083E+01               0
GRID*               6578               02.0000000000E+016.3342686497E-01+
*       -3.317075631E+01               0
GRID*               6579               02.0000000000E+01-7.888552273E-01+
*       -3.581169111E+01               0
GRID*               6580               02.0000000000E+013.7244582171E+00+
*       -4.374770085E+01               0
GRID*               6581               02.0000000000E+016.6916119666E+00+
*       -4.366825129E+01               0
GRID*               6582               02.0000000000E+012.2124029688E+00+
*       -4.109404934E+01               0
GRID*               6583               02.0000000000E+016.9678194588E-01+
*       -3.846710818E+01               0
GRID*               6584               02.0000000000E+013.6457650417E+00+
*       -3.841140775E+01               0
GRID*               6585               02.0000000000E+013.2840124643E+01+
*       -9.306828705E+01               0
GRID*               6586               02.0000000000E+012.9775617482E+01+
*       -8.791609241E+01               0
GRID*               6587               02.0000000000E+012.8241163554E+01+
*       -8.533565598E+01               0
GRID*               6588               02.0000000000E+013.1218382390E+01+
*       -8.525416876E+01               0
GRID*               6589               02.0000000000E+013.1305866655E+01+
*       -9.049118770E+01               0
GRID*               6590               02.0000000000E+013.4287094305E+01+
*       -9.041170453E+01               0
GRID*               6591               02.0000000000E+011.5989911789E+01+
*       -6.467234482E+01               0
GRID*               6592               02.0000000000E+011.8959476176E+01+
*       -6.457345212E+01               0
GRID*               6593               02.0000000000E+011.7520090933E+01+
*       -6.726524864E+01               0
GRID*               6594               02.0000000000E+011.9051878162E+01+
*       -6.984889119E+01               0
GRID*               6595               02.0000000000E+012.2020410278E+01+
*       -6.975340112E+01               0
GRID*               6596               02.0000000000E+012.0582633119E+01+
*       -7.243593638E+01               0
GRID*               6597               02.0000000000E+012.6710689692E+01+
*       -8.275946255E+01               0
GRID*               6598               02.0000000000E+012.2113636613E+01+
*       -7.501544678E+01               0
GRID*               6599               02.0000000000E+012.5083633954E+01+
*       -7.492457407E+01               0
GRID*               6600               02.0000000000E+012.3646105331E+01+
*       -7.759957454E+01               0
GRID*               6601               02.0000000000E+012.5176776798E+01+
*       -8.017694730E+01               0
GRID*               6602               02.0000000000E+012.8150015567E+01+
*       -8.009121708E+01               0
GRID*               6603               02.0000000000E+01-9.700942776E-01+
*       -2.533919094E+01               0
GRID*               6604               02.0000000000E+01-2.503845298E+00+
*       -2.278004936E+01               0
GRID*               6605               02.0000000000E+013.5378376063E-01+
*       -2.272678121E+01               0
GRID*               6606               02.0000000000E+013.5239830530E+00+
*       -3.310953707E+01               0
GRID*               6607               02.0000000000E+016.4462261249E+00+
*       -3.303031234E+01               0
GRID*               6608               02.0000000000E+015.0523870906E+00+
*       -3.570524186E+01               0
GRID*               6609               02.0000000000E+012.0272658993E+00+
*       -3.049582680E+01               0
GRID*               6610               02.0000000000E+015.1212224626E-01+
*       -2.792148442E+01               0
GRID*               6611               02.0000000000E+013.4026784343E+00+
*       -2.786026517E+01               0
GRID*               6612               02.0000000000E+011.2726763827E+01+
*       -4.883003701E+01               0
GRID*               6613               02.0000000000E+011.5700437860E+01+
*       -4.874012587E+01               0
GRID*               6614               02.0000000000E+011.4268191221E+01+
*       -5.145755659E+01               0
GRID*               6615               02.0000000000E+016.5680081135E+00+
*       -3.833218302E+01               0
GRID*               6616               02.0000000000E+019.5183480302E+00+
*       -3.824150735E+01               0
GRID*               6617               02.0000000000E+018.1117259812E+00+
*       -4.094767323E+01               0
GRID*               6618               02.0000000000E+011.1190424167E+01+
*       -4.620537998E+01               0
GRID*               6619               02.0000000000E+019.6419518832E+00+
*       -4.357757561E+01               0
GRID*               6620               02.0000000000E+011.2610538182E+01+
*       -4.348480192E+01               0
GRID*               6621               02.0000000000E+013.1109854797E+01+
*       -8.000306676E+01               0
GRID*               6622               02.0000000000E+013.4074498667E+01+
*       -7.991601816E+01               0
GRID*               6623               02.0000000000E+013.2648572332E+01+
*       -8.258668373E+01               0
GRID*               6624               02.0000000000E+012.4975956590E+01+
*       -6.966261213E+01               0
GRID*               6625               02.0000000000E+012.3445201633E+01+
*       -6.707556694E+01               0
GRID*               6626               02.0000000000E+012.7932008505E+01+
*       -6.957234268E+01               0
GRID*               6627               02.0000000000E+012.6507217150E+01+
*       -7.225017687E+01               0
GRID*               6628               02.0000000000E+012.9575941902E+01+
*       -7.742055151E+01               0
GRID*               6629               02.0000000000E+012.8039685869E+01+
*       -7.483430462E+01               0
GRID*               6630               02.0000000000E+013.0999525098E+01+
*       -7.474615430E+01               0
GRID*               6631               02.0000000000E+012.1919625311E+01+
*       -6.448420580E+01               0
GRID*               6632               02.0000000000E+012.4875171623E+01+
*       -6.439341681E+01               0
GRID*               6633               02.0000000000E+011.5803567745E+01+
*       -5.407170244E+01               0
GRID*               6634               02.0000000000E+011.8771922067E+01+
*       -5.398359957E+01               0
GRID*               6635               02.0000000000E+011.7333624558E+01+
*       -5.668765657E+01               0
GRID*               6636               02.0000000000E+012.0389446167E+01+
*       -6.189130199E+01               0
GRID*               6637               02.0000000000E+011.8865637956E+01+
*       -5.929005100E+01               0
GRID*               6638               02.0000000000E+012.1825787091E+01+
*       -5.920080469E+01               0
GRID*               6639               02.0000000000E+015.4250889210E+01+
*       -1.187752922E+02               0
GRID*               6640               02.0000000000E+015.5794910281E+01+
*       -1.213799236E+02               0
GRID*               6641               02.0000000000E+015.2691798019E+01+
*       -1.161504797E+02               0
GRID*               6642               02.0000000000E+015.5729358257E+01+
*       -1.161163242E+02               0
GRID*               6643               02.0000000000E+015.7342115872E+01+
*       -1.240071925E+02               0
GRID*               6644               02.0000000000E+015.8881624475E+01+
*       -1.266110165E+02               0
GRID*               6645               02.0000000000E+015.8835655039E+01+
*       -1.213684056E+02               0
GRID*               6646               02.0000000000E+016.0416509641E+01+
*       -1.292261040E+02               0
GRID*               6647               02.0000000000E+016.1953070842E+01+
*       -1.318246813E+02               0
GRID*               6648               02.0000000000E+016.1917745797E+01+
*       -1.266107621E+02               0
GRID*               6649               02.0000000000E+016.3486380082E+01+
*       -1.344242037E+02               0
GRID*               6650               02.0000000000E+016.5024401094E+01+
*       -1.370188052E+02               0
GRID*               6651               02.0000000000E+016.4985940203E+01+
*       -1.318253720E+02               0
GRID*               6652               02.0000000000E+017.1190809232E+01+
*       -1.473981779E+02               0
GRID*               6653               02.0000000000E+017.4221112263E+01+
*       -1.473981779E+02               0
GRID*               6654               02.0000000000E+016.6563948669E+01+
*       -1.396107812E+02               0
GRID*               6655               02.0000000000E+016.8105511085E+01+
*       -1.422057612E+02               0
GRID*               6656               02.0000000000E+016.8058797018E+01+
*       -1.370168705E+02               0
GRID*               6657               02.0000000000E+016.9648663172E+01+
*       -1.447995159E+02               0
GRID*               6658               02.0000000000E+017.1141496680E+01+
*       -1.422026011E+02               0
GRID*               6659               02.0000000000E+014.0328746241E+01+
*       -9.546836157E+01               0
GRID*               6660               02.0000000000E+014.3307966943E+01+
*       -9.537017598E+01               0
GRID*               6661               02.0000000000E+014.1868791741E+01+
*       -9.803805120E+01               0
GRID*               6662               02.0000000000E+013.4183026260E+01+
*       -8.516712016E+01               0
GRID*               6663               02.0000000000E+013.7152119367E+01+
*       -8.507792640E+01               0
GRID*               6664               02.0000000000E+013.5721929425E+01+
*       -8.774541142E+01               0
GRID*               6665               02.0000000000E+013.8794636868E+01+
*       -9.289464512E+01               0
GRID*               6666               02.0000000000E+013.7256187412E+01+
*       -9.032251077E+01               0
GRID*               6667               02.0000000000E+014.0229471988E+01+
*       -9.022835201E+01               0
GRID*               6668               02.0000000000E+015.1146266308E+01+
*       -1.135522650E+02               0
GRID*               6669               02.0000000000E+014.9585374221E+01+
*       -1.109425705E+02               0
GRID*               6670               02.0000000000E+015.2609374978E+01+
*       -1.108818172E+02               0
GRID*               6671               02.0000000000E+014.3403968455E+01+
*       -1.006111711E+02               0
GRID*               6672               02.0000000000E+014.6393830078E+01+
*       -1.005154267E+02               0
GRID*               6673               02.0000000000E+014.4949786090E+01+
*       -1.031867322E+02               0
GRID*               6674               02.0000000000E+014.8042564950E+01+
*       -1.083551074E+02               0
GRID*               6675               02.0000000000E+014.6488147361E+01+
*       -1.057645400E+02               0
GRID*               6676               02.0000000000E+014.9494065302E+01+
*       -1.056815552E+02               0
GRID*               6677               02.0000000000E+017.7269131811E+01+
*       -1.473889718E+02               0
GRID*               6678               02.0000000000E+018.0299434841E+01+
*       -1.473889718E+02               0
GRID*               6679               02.0000000000E+017.2644322430E+01+
*       -1.396039526E+02               0
GRID*               6680               02.0000000000E+017.4187474517E+01+
*       -1.421977073E+02               0
GRID*               6681               02.0000000000E+017.1099064114E+01+
*       -1.370220599E+02               0
GRID*               6682               02.0000000000E+017.4145041951E+01+
*       -1.370171660E+02               0
GRID*               6683               02.0000000000E+017.5732668316E+01+
*       -1.447871497E+02               0
GRID*               6684               02.0000000000E+017.7235494065E+01+
*       -1.421885012E+02               0
GRID*               6685               02.0000000000E+016.3440901116E+01+
*       -1.240134768E+02               0
GRID*               6686               02.0000000000E+016.1907718240E+01+
*       -1.213604605E+02               0
GRID*               6687               02.0000000000E+016.4965758726E+01+
*       -1.213782628E+02               0
GRID*               6688               02.0000000000E+016.9559516539E+01+
*       -1.344300839E+02               0
GRID*               6689               02.0000000000E+016.8027293161E+01+
*       -1.318423475E+02               0
GRID*               6690               02.0000000000E+017.1067560257E+01+
*       -1.318475370E+02               0
GRID*               6691               02.0000000000E+016.4975786282E+01+
*       -1.266285643E+02               0
GRID*               6692               02.0000000000E+016.6493983921E+01+
*       -1.292428251E+02               0
GRID*               6693               02.0000000000E+016.8017139240E+01+
*       -1.266455398E+02               0
GRID*               6694               02.0000000000E+014.4731619328E+01+
*       -9.268566353E+01               0
GRID*               6695               02.0000000000E+014.3186880137E+01+
*       -9.012352115E+01               0
GRID*               6696               02.0000000000E+014.6150578022E+01+
*       -9.000869832E+01               0
GRID*               6697               02.0000000000E+014.6271664828E+01+
*       -9.525535316E+01               0
GRID*               6698               02.0000000000E+014.9249015812E+01+
*       -9.513693324E+01               0
GRID*               6699               02.0000000000E+014.7825363427E+01+
*       -9.782144569E+01               0
GRID*               6700               02.0000000000E+014.9371181062E+01+
*       -1.003970068E+02               0
GRID*               6701               02.0000000000E+015.0940900267E+01+
*       -1.029819857E+02               0
GRID*               6702               02.0000000000E+015.2495317855E+01+
*       -1.055725532E+02               0
GRID*               6703               02.0000000000E+015.2372433615E+01+
*       -1.002880047E+02               0
GRID*               6704               02.0000000000E+015.4079879605E+01+
*       -1.081880980E+02               0
GRID*               6705               02.0000000000E+015.5526714569E+01+
*       -1.054885286E+02               0
GRID*               6706               02.0000000000E+016.0360512649E+01+
*       -1.187331916E+02               0
GRID*               6707               02.0000000000E+015.8789451508E+01+
*       -1.160681152E+02               0
GRID*               6708               02.0000000000E+016.1861514709E+01+
*       -1.160601701E+02               0
GRID*               6709               02.0000000000E+015.5640771692E+01+
*       -1.107977926E+02               0
GRID*               6710               02.0000000000E+015.7230360316E+01+
*       -1.134433027E+02               0
GRID*               6711               02.0000000000E+015.8700864943E+01+
*       -1.107495835E+02               0
GRID*               6712               02.0000000000E+014.1648430682E+01+
*       -8.755138680E+01               0
GRID*               6713               02.0000000000E+013.8566379680E+01+
*       -8.240469800E+01               0
GRID*               6714               02.0000000000E+013.7022056615E+01+
*       -7.982720864E+01               0
GRID*               6715               02.0000000000E+013.9975220092E+01+
*       -7.973227150E+01               0
GRID*               6716               02.0000000000E+014.0105282845E+01+
*       -8.498298926E+01               0
GRID*               6717               02.0000000000E+014.3062690995E+01+
*       -8.487815840E+01               0
GRID*               6718               02.0000000000E+013.5483339079E+01+
*       -7.724359167E+01               0
GRID*               6719               02.0000000000E+013.3940158799E+01+
*       -7.466017442E+01               0
GRID*               6720               02.0000000000E+013.6887716746E+01+
*       -7.457136490E+01               0
GRID*               6721               02.0000000000E+012.6286119546E+01+
*       -6.172658905E+01               0
GRID*               6722               02.0000000000E+012.4775725379E+01+
*       -5.913506479E+01               0
GRID*               6723               02.0000000000E+012.7712249624E+01+
*       -5.905959816E+01               0
GRID*               6724               02.0000000000E+012.7811695868E+01+
*       -6.431795018E+01               0
GRID*               6725               02.0000000000E+013.0746888906E+01+
*       -6.423510893E+01               0
GRID*               6726               02.0000000000E+012.9335940983E+01+
*       -6.690193669E+01               0
GRID*               6727               02.0000000000E+013.2403902766E+01+
*       -7.207392753E+01               0
GRID*               6728               02.0000000000E+013.0867201543E+01+
*       -6.948950143E+01               0
GRID*               6729               02.0000000000E+013.3807835244E+01+
*       -6.940352154E+01               0
GRID*               6730               02.0000000000E+012.3251917169E+01+
*       -5.653381380E+01               0
GRID*               6731               02.0000000000E+012.1742390006E+01+
*       -5.391856346E+01               0
GRID*               6732               02.0000000000E+012.0212333193E+01+
*       -5.130260934E+01               0
GRID*               6733               02.0000000000E+012.4692328295E+01+
*       -5.385282356E+01               0
GRID*               6734               02.0000000000E+011.7139169616E+01+
*       -4.603114354E+01               0
GRID*               6735               02.0000000000E+011.5576773450E+01+
*       -4.337857795E+01               0
GRID*               6736               02.0000000000E+011.8556932600E+01+
*       -4.329711521E+01               0
GRID*               6737               02.0000000000E+011.8680597010E+01+
*       -4.865866312E+01               0
GRID*               6738               02.0000000000E+012.1651064949E+01+
*       -4.859362701E+01               0
GRID*               6739               02.0000000000E+011.7141153043E+00+
*       -2.008727643E+01               0
GRID*               6740               02.0000000000E+011.9808912624E-01+
*       -1.755516549E+01               0
GRID*               6741               02.0000000000E+013.0921716906E+00+
*       -1.747480230E+01               0
GRID*               6742               02.0000000000E+016.2751327707E+00+
*       -2.775926218E+01               0
GRID*               6743               02.0000000000E+019.1691521517E+00+
*       -2.764026648E+01               0
GRID*               6744               02.0000000000E+017.8118414683E+00+
*       -3.031561186E+01               0
GRID*               6745               02.0000000000E+014.7599891177E+00+
*       -2.518491980E+01               0
GRID*               6746               02.0000000000E+013.2478663250E+00+
*       -2.264641801E+01               0
GRID*               6747               02.0000000000E+016.1203206614E+00+
*       -2.254541502E+01               0
GRID*               6748               02.0000000000E+011.4028301166E+01+
*       -4.075077359E+01               0
GRID*               6749               02.0000000000E+019.3402455059E+00+
*       -3.291131665E+01               0
GRID*               6750               02.0000000000E+011.2272659549E+01+
*       -3.278887980E+01               0
GRID*               6751               02.0000000000E+011.0907044206E+01+
*       -3.550358028E+01               0
GRID*               6752               02.0000000000E+011.2450762073E+01+
*       -3.811907049E+01               0
GRID*               6753               02.0000000000E+011.5416997342E+01+
*       -3.801284652E+01               0
GRID*               6754               02.0000000000E+015.9019877464E+00+
*       -1.231666315E+01               0
GRID*               6755               02.0000000000E+018.8800272732E+00+
*       -1.206273198E+01               0
GRID*               6756               02.0000000000E+014.4817711512E+00+
*       -1.484223193E+01               0
GRID*               6757               02.0000000000E+015.9977973293E+00+
*       -1.737434287E+01               0
GRID*               6758               02.0000000000E+012.9963621077E+00+
*       -1.241712257E+01               0
GRID*               6759               02.0000000000E+018.3380379937E+01+
*       -1.473605492E+02               0
GRID*               6760               02.0000000000E+018.6410682967E+01+
*       -1.473605492E+02               0
GRID*               6761               02.0000000000E+017.8757399785E+01+
*       -1.395799396E+02               0
GRID*               6762               02.0000000000E+018.0302593583E+01+
*       -1.421693821E+02               0
GRID*               6763               02.0000000000E+017.7197840900E+01+
*       -1.370173747E+02               0
GRID*               6764               02.0000000000E+018.0264940418E+01+
*       -1.369982556E+02               0
GRID*               6765               02.0000000000E+018.1861632960E+01+
*       -1.447495211E+02               0
GRID*               6766               02.0000000000E+018.3383538679E+01+
*       -1.421409595E+02               0
GRID*               6767               02.0000000000E+016.9547475934E+01+
*       -1.240918970E+02               0
GRID*               6768               02.0000000000E+016.8084921153E+01+
*       -1.214279025E+02               0
GRID*               6769               02.0000000000E+017.1133455486E+01+
*       -1.214885205E+02               0
GRID*               6770               02.0000000000E+017.5652582585E+01+
*       -1.344354821E+02               0
GRID*               6771               02.0000000000E+017.4108146263E+01+
*       -1.318711858E+02               0
GRID*               6772               02.0000000000E+017.7160945212E+01+
*       -1.318713945E+02               0
GRID*               6773               02.0000000000E+017.1065673572E+01+
*       -1.267061578E+02               0
GRID*               6774               02.0000000000E+017.2575922885E+01+
*       -1.292834494E+02               0
GRID*               6775               02.0000000000E+017.4106259579E+01+
*       -1.267298066E+02               0
GRID*               6776               02.0000000000E+016.6551738278E+01+
*       -1.187748863E+02               0
GRID*               6777               02.0000000000E+016.3425678324E+01+
*       -1.133734199E+02               0
GRID*               6778               02.0000000000E+016.1784263310E+01+
*       -1.106761409E+02               0
GRID*               6779               02.0000000000E+016.4919488067E+01+
*       -1.106544670E+02               0
GRID*               6780               02.0000000000E+016.4996739466E+01+
*       -1.160384963E+02               0
GRID*               6781               02.0000000000E+016.8115901893E+01+
*       -1.160881360E+02               0
GRID*               6782               02.0000000000E+016.0194674686E+01+
*       -1.080306307E+02               0
GRID*               6783               02.0000000000E+015.8563356268E+01+
*       -1.053714133E+02               0
GRID*               6784               02.0000000000E+016.1646754635E+01+
*       -1.052979706E+02               0
GRID*               6785               02.0000000000E+015.0653202400E+01+
*       -9.243578513E+01               0
GRID*               6786               02.0000000000E+014.9094734386E+01+
*       -8.988665872E+01               0
GRID*               6787               02.0000000000E+015.2052619573E+01+
*       -8.975160314E+01               0
GRID*               6788               02.0000000000E+015.2206900998E+01+
*       -9.500187766E+01               0
GRID*               6789               02.0000000000E+015.5195032377E+01+
*       -9.486490730E+01               0
GRID*               6790               02.0000000000E+015.3790845789E+01+
*       -9.756605541E+01               0
GRID*               6791               02.0000000000E+015.6978794519E+01+
*       -1.027558684E+02               0
GRID*               6792               02.0000000000E+015.5360564994E+01+
*       -1.001510344E+02               0
GRID*               6793               02.0000000000E+015.8397206693E+01+
*       -1.000339191E+02               0
GRID*               6794               02.0000000000E+014.7549995196E+01+
*       -8.732451633E+01               0
GRID*               6795               02.0000000000E+014.4458930385E+01+
*       -8.220360690E+01               0
GRID*               6796               02.0000000000E+014.2910314234E+01+
*       -7.963896718E+01               0
GRID*               6797               02.0000000000E+014.5849701461E+01+
*       -7.953281322E+01               0
GRID*               6798               02.0000000000E+014.6002078222E+01+
*       -8.477200444E+01               0
GRID*               6799               02.0000000000E+014.8946234586E+01+
*       -8.464996483E+01               0
GRID*               6800               02.0000000000E+014.1365991168E+01+
*       -7.706147782E+01               0
GRID*               6801               02.0000000000E+013.9814672630E+01+
*       -7.448634123E+01               0
GRID*               6802               02.0000000000E+014.2749766772E+01+
*       -7.439303691E+01               0
GRID*               6803               02.0000000000E+013.2127672475E+01+
*       -6.158431213E+01               0
GRID*               6804               02.0000000000E+013.0621731490E+01+
*       -5.901751092E+01               0
GRID*               6805               02.0000000000E+013.3526760174E+01+
*       -5.895070062E+01               0
GRID*               6806               02.0000000000E+013.3651917590E+01+
*       -6.416829863E+01               0
GRID*               6807               02.0000000000E+013.6567285736E+01+
*       -6.408981825E+01               0
GRID*               6808               02.0000000000E+013.5186502168E+01+
*       -6.674061505E+01               0
GRID*               6809               02.0000000000E+013.8271492350E+01+
*       -7.190292398E+01               0
GRID*               6810               02.0000000000E+013.6723203390E+01+
*       -6.932504116E+01               0
GRID*               6811               02.0000000000E+013.9650159274E+01+
*       -6.924001749E+01               0
GRID*               6812               02.0000000000E+012.9111337323E+01+
*       -5.642598665E+01               0
GRID*               6813               02.0000000000E+012.7640015432E+01+
*       -5.383528834E+01               0
GRID*               6814               02.0000000000E+012.6130488270E+01+
*       -5.122003800E+01               0
GRID*               6815               02.0000000000E+013.0549497298E+01+
*       -5.379320109E+01               0
GRID*               6816               02.0000000000E+012.3115931845E+01+
*       -4.591719849E+01               0
GRID*               6817               02.0000000000E+012.1561321037E+01+
*       -4.320792170E+01               0
GRID*               6818               02.0000000000E+012.4557924116E+01+
*       -4.317543939E+01               0
GRID*               6819               02.0000000000E+012.4647668028E+01+
*       -4.856114470E+01               0
GRID*               6820               02.0000000000E+012.7595355165E+01+
*       -4.854360948E+01               0
GRID*               6821               02.0000000000E+017.4559232114E+00+
*       -1.987645336E+01               0
GRID*               6822               02.0000000000E+018.8455226720E+00+
*       -1.724388300E+01               0
GRID*               6823               02.0000000000E+011.2016713721E+01+
*       -2.747430262E+01               0
GRID*               6824               02.0000000000E+011.4919134365E+01+
*       -2.729124831E+01               0
GRID*               6825               02.0000000000E+011.3608281493E+01+
*       -3.001356186E+01               0
GRID*               6826               02.0000000000E+011.0480005023E+01+
*       -2.491795294E+01               0
GRID*               6827               02.0000000000E+018.9680460041E+00+
*       -2.241495514E+01               0
GRID*               6828               02.0000000000E+011.1815607573E+01+
*       -2.224899128E+01               0
GRID*               6829               02.0000000000E+011.9998924871E+01+
*       -4.055535611E+01               0
GRID*               6830               02.0000000000E+011.5175080193E+01+
*       -3.260582549E+01               0
GRID*               6831               02.0000000000E+011.8141101145E+01+
*       -3.245572168E+01               0
GRID*               6832               02.0000000000E+011.6805479200E+01+
*       -3.523103962E+01               0
GRID*               6833               02.0000000000E+011.8383018293E+01+
*       -3.786274272E+01               0
GRID*               6834               02.0000000000E+012.1387406730E+01+
*       -3.777354921E+01               0
GRID*               6835               02.0000000000E+011.1701248798E+01+
*       -1.189401382E+01               0
GRID*               6836               02.0000000000E+011.4649363750E+01+
*       -1.140341539E+01               0
GRID*               6837               02.0000000000E+011.0208618315E+01+
*       -1.457305435E+01               0
GRID*               6838               02.0000000000E+011.1666744197E+01+
*       -1.707516483E+01               0
GRID*               6839               02.0000000000E+018.9631062570E+01+
*       -1.472757833E+02               0
GRID*               6840               02.0000000000E+019.2661365600E+01+
*       -1.472757833E+02               0
GRID*               6841               02.0000000000E+018.4928936097E+01+
*       -1.395036344E+02               0
GRID*               6842               02.0000000000E+018.3332792964E+01+
*       -1.369850139E+02               0
GRID*               6843               02.0000000000E+018.6437229758E+01+
*       -1.369278278E+02               0
GRID*               6844               02.0000000000E+018.8162957658E+01+
*       -1.446363326E+02               0
GRID*               6845               02.0000000000E+018.6487975473E+01+
*       -1.420837734E+02               0
GRID*               6846               02.0000000000E+018.9708355075E+01+
*       -1.419990074E+02               0
GRID*               6847               02.0000000000E+016.9960872952E+01+
*       -1.133507091E+02               0
GRID*               6848               02.0000000000E+016.8051090532E+01+
*       -1.106126221E+02               0
GRID*               6849               02.0000000000E+017.1451060403E+01+
*       -1.106115851E+02               0
GRID*               6850               02.0000000000E+017.4147925772E+01+
*       -1.217009346E+02               0
GRID*               6851               02.0000000000E+017.7159636605E+01+
*       -1.217553563E+02               0
GRID*               6852               02.0000000000E+017.5607721099E+01+
*       -1.242069367E+02               0
GRID*               6853               02.0000000000E+017.2685370991E+01+
*       -1.190369401E+02               0
GRID*               6854               02.0000000000E+017.1515871764E+01+
*       -1.160870991E+02               0
GRID*               6855               02.0000000000E+017.4530342050E+01+
*       -1.162995132E+02               0
GRID*               6856               02.0000000000E+018.1773234079E+01+
*       -1.344224490E+02               0
GRID*               6857               02.0000000000E+017.7117970411E+01+
*       -1.267842283E+02               0
GRID*               6858               02.0000000000E+018.0170701000E+01+
*       -1.267943814E+02               0
GRID*               6859               02.0000000000E+017.8669239480E+01+
*       -1.293172513E+02               0
GRID*               6860               02.0000000000E+018.0213675801E+01+
*       -1.318815476E+02               0
GRID*               6861               02.0000000000E+018.3281528347E+01+
*       -1.318683058E+02               0
GRID*               6862               02.0000000000E+016.6409675518E+01+
*       -1.079153431E+02               0
GRID*               6863               02.0000000000E+016.4771915195E+01+
*       -1.051773482E+02               0
GRID*               6864               02.0000000000E+016.7903517660E+01+
*       -1.051355033E+02               0
GRID*               6865               02.0000000000E+016.3140596778E+01+
*       -1.025181308E+02               0
GRID*               6866               02.0000000000E+016.1416049961E+01+
*       -9.987194239E+01               0
GRID*               6867               02.0000000000E+016.4541210521E+01+
*       -9.975132006E+01               0
GRID*               6868               02.0000000000E+015.9797820436E+01+
*       -9.726710835E+01               0
GRID*               6869               02.0000000000E+015.8154402737E+01+
*       -9.470896375E+01               0
GRID*               6870               02.0000000000E+016.1173246005E+01+
*       -9.454698705E+01               0
GRID*               6871               02.0000000000E+015.6570457946E+01+
*       -9.214478600E+01               0
GRID*               6872               02.0000000000E+015.4983346454E+01+
*       -8.961483822E+01               0
GRID*               6873               02.0000000000E+015.7942716813E+01+
*       -8.945889467E+01               0
GRID*               6874               02.0000000000E+015.3424878440E+01+
*       -8.706571181E+01               0
GRID*               6875               02.0000000000E+015.1869887885E+01+
*       -8.453659552E+01               0
GRID*               6876               02.0000000000E+015.4800614766E+01+
*       -8.439983060E+01               0
GRID*               6877               02.0000000000E+015.0321970912E+01+
*       -8.198408363E+01               0
GRID*               6878               02.0000000000E+014.8772868449E+01+
*       -7.943761496E+01               0
GRID*               6879               02.0000000000E+015.1696521748E+01+
*       -7.932424565E+01               0
GRID*               6880               02.0000000000E+014.7224252297E+01+
*       -7.687297523E+01               0
GRID*               6881               02.0000000000E+014.5667303109E+01+
*       -7.430896313E+01               0
GRID*               6882               02.0000000000E+014.8590470097E+01+
*       -7.421376486E+01               0
GRID*               6883               02.0000000000E+014.4115984572E+01+
*       -7.173382653E+01               0
GRID*               6884               02.0000000000E+014.2554523254E+01+
*       -6.916247993E+01               0
GRID*               6885               02.0000000000E+014.5472059591E+01+
*       -6.907840616E+01               0
GRID*               6886               02.0000000000E+014.1006234294E+01+
*       -6.658459711E+01               0
GRID*               6887               02.0000000000E+013.9449749877E+01+
*       -6.402077682E+01               0
GRID*               6888               02.0000000000E+014.2354113857E+01+
*       -6.394323927E+01               0
GRID*               6889               02.0000000000E+013.7915165299E+01+
*       -6.144846040E+01               0
GRID*               6890               02.0000000000E+013.6382124067E+01+
*       -5.890806040E+01               0
GRID*               6891               02.0000000000E+013.9264588208E+01+
*       -5.883901898E+01               0
GRID*               6892               02.0000000000E+013.4876183082E+01+
*       -5.634125919E+01               0
GRID*               6893               02.0000000000E+013.3410806143E+01+
*       -5.382664599E+01               0
GRID*               6894               02.0000000000E+013.6266170036E+01+
*       -5.378400577E+01               0
GRID*               6895               02.0000000000E+011.3048896284E+01+
*       -1.957246842E+01               0
GRID*               6896               02.0000000000E+011.4560855303E+01+
*       -2.207546622E+01               0
GRID*               6897               02.0000000000E+011.4411991927E+01+
*       -1.690163977E+01               0
GRID*               6898               02.0000000000E+013.1939484252E+01+
*       -5.123594768E+01               0
GRID*               6899               02.0000000000E+013.0585088735E+01+
*       -4.862105221E+01               0
GRID*               6900               02.0000000000E+013.3446397580E+01+
*       -4.865449710E+01               0
GRID*               6901               02.0000000000E+011.6153143153E+01+
*       -2.447262581E+01               0
GRID*               6902               02.0000000000E+011.7744710926E+01+
*       -2.701188504E+01               0
GRID*               6903               02.0000000000E+011.7386431864E+01+
*       -2.179610295E+01               0
GRID*               6904               02.0000000000E+012.9102268494E+01+
*       -4.596215890E+01               0
GRID*               6905               02.0000000000E+012.7643079043E+01+
*       -4.315711517E+01               0
GRID*               6906               02.0000000000E+013.0632812613E+01+
*       -4.323455789E+01               0
GRID*               6907               02.0000000000E+011.9472553152E+01+
*       -2.957587116E+01               0
GRID*               6908               02.0000000000E+012.1102952160E+01+
*       -3.220108529E+01               0
GRID*               6909               02.0000000000E+012.0706561941E+01+
*       -2.675724865E+01               0
GRID*               6910               02.0000000000E+012.6088468235E+01+
*       -4.044783838E+01               0
GRID*               6911               02.0000000000E+012.4426686940E+01+
*       -3.763186119E+01               0
GRID*               6912               02.0000000000E+012.7511841867E+01+
*       -3.761353696E+01               0
GRID*               6913               02.0000000000E+012.2810780362E+01+
*       -3.493924779E+01               0
GRID*               6914               02.0000000000E+012.4142232370E+01+
*       -3.205939727E+01               0
GRID*               6915               02.0000000000E+015.8550406057E+01+
*       -6.613765572E+01               0
GRID*               6916               02.0000000000E+016.0134973516E+01+
*       -6.872168311E+01               0
GRID*               6917               02.0000000000E+015.7148341121E+01+
*       -6.879692866E+01               0
GRID*               6918               02.0000000000E+015.9848866498E+01+
*       -6.348949016E+01               0
GRID*               6919               02.0000000000E+016.1058990348E+01+
*       -6.076437775E+01               0
GRID*               6920               02.0000000000E+016.2747162302E+01+
*       -6.333729776E+01               0
GRID*               6921               02.0000000000E+015.6862234103E+01+
*       -6.356473571E+01               0
GRID*               6922               02.0000000000E+015.3959587467E+01+
*       -6.364773084E+01               0
GRID*               6923               02.0000000000E+015.5258047908E+01+
*       -6.099956527E+01               0
GRID*               6924               02.0000000000E+014.5237508067E+01+
*       -6.386831835E+01               0
GRID*               6925               02.0000000000E+014.8140844617E+01+
*       -6.379581878E+01               0
GRID*               6926               02.0000000000E+014.6813934823E+01+
*       -6.643455999E+01               0
GRID*               6927               02.0000000000E+014.3681023650E+01+
*       -6.130449806E+01               0
GRID*               6928               02.0000000000E+015.1036336323E+01+
*       -6.372231041E+01               0
GRID*               6929               02.0000000000E+015.2640522518E+01+
*       -6.628748084E+01               0
GRID*               6930               02.0000000000E+014.9459909566E+01+
*       -6.115606877E+01               0
GRID*               6931               02.0000000000E+015.3059707495E+01+
*       -7.669151376E+01               0
GRID*               6932               02.0000000000E+015.4608809958E+01+
*       -7.923798243E+01               0
GRID*               6933               02.0000000000E+015.4415592387E+01+
*       -7.405267748E+01               0
GRID*               6934               02.0000000000E+015.5796048825E+01+
*       -7.144053023E+01               0
GRID*               6935               02.0000000000E+015.7352452142E+01+
*       -7.399310329E+01               0
GRID*               6936               02.0000000000E+015.1503304177E+01+
*       -7.413894069E+01               0
GRID*               6937               02.0000000000E+014.9946354989E+01+
*       -7.157492858E+01               0
GRID*               6938               02.0000000000E+015.4211481366E+01+
*       -6.885650284E+01               0
GRID*               6939               02.0000000000E+015.1288230221E+01+
*       -6.893108241E+01               0
GRID*               6940               02.0000000000E+014.8375396141E+01+
*       -6.900590659E+01               0
GRID*               6941               02.0000000000E+014.2104464271E+01+
*       -5.876705365E+01               0
GRID*               6942               02.0000000000E+014.4987858481E+01+
*       -5.869213273E+01               0
GRID*               6943               02.0000000000E+014.0571423038E+01+
*       -5.622665365E+01               0
GRID*               6944               02.0000000000E+014.7862358627E+01+
*       -5.862136337E+01               0
GRID*               6945               02.0000000000E+015.0757850333E+01+
*       -5.854785500E+01               0
GRID*               6946               02.0000000000E+014.6285799248E+01+
*       -5.608391896E+01               0
GRID*               6947               02.0000000000E+015.3637479474E+01+
*       -5.849089790E+01               0
GRID*               6948               02.0000000000E+015.6540126110E+01+
*       -5.840790277E+01               0
GRID*               6949               02.0000000000E+015.2039928535E+01+
*       -5.595619250E+01               0
GRID*               6950               02.0000000000E+016.2292155393E+01+
*       -5.817406243E+01               0
GRID*               6951               02.0000000000E+016.3450530847E+01+
*       -5.560031750E+01               0
GRID*               6952               02.0000000000E+016.5115661605E+01+
*       -5.803844043E+01               0
GRID*               6953               02.0000000000E+015.9393859590E+01+
*       -5.832625482E+01               0
GRID*               6954               02.0000000000E+015.7773291156E+01+
*       -5.581758745E+01               0
GRID*               6955               02.0000000000E+013.9014202617E+01+
*       -5.375824485E+01               0
GRID*               6956               02.0000000000E+014.1854078680E+01+
*       -5.368627951E+01               0
GRID*               6957               02.0000000000E+013.7548825677E+01+
*       -5.124363164E+01               0
GRID*               6958               02.0000000000E+014.4671719671E+01+
*       -5.352930523E+01               0
GRID*               6959               02.0000000000E+014.7546219818E+01+
*       -5.345853587E+01               0
GRID*               6960               02.0000000000E+014.3114499250E+01+
*       -5.106089643E+01               0
GRID*               6961               02.0000000000E+015.0471018785E+01+
*       -5.344892133E+01               0
GRID*               6962               02.0000000000E+015.3350647926E+01+
*       -5.339196423E+01               0
GRID*               6963               02.0000000000E+014.8856939208E+01+
*       -5.089430760E+01               0
GRID*               6964               02.0000000000E+015.6181099538E+01+
*       -5.337461770E+01               0
GRID*               6965               02.0000000000E+015.9034833018E+01+
*       -5.329296976E+01               0
GRID*               6966               02.0000000000E+015.4612189788E+01+
*       -5.086734654E+01               0
GRID*               6967               02.0000000000E+016.4645744254E+01+
*       -5.309854399E+01               0
GRID*               6968               02.0000000000E+016.5736838448E+01+
*       -5.053373216E+01               0
GRID*               6969               02.0000000000E+016.7365131252E+01+
*       -5.289988367E+01               0
GRID*               6970               02.0000000000E+016.1822238043E+01+
*       -5.323416599E+01               0
GRID*               6971               02.0000000000E+016.0230046425E+01+
*       -5.079119625E+01               0
GRID*               6972               02.0000000000E+015.1669498903E+01+
*       -3.938414203E+01               0
GRID*               6973               02.0000000000E+015.1520401124E+01+
*       -4.298327672E+01               0
GRID*               6974               02.0000000000E+014.8803827379E+01+
*       -4.118066501E+01               0
GRID*               6975               02.0000000000E+015.1681048590E+01+
*       -3.622604823E+01               0
GRID*               6976               02.0000000000E+014.9171993547E+01+
*       -3.449205463E+01               0
GRID*               6977               02.0000000000E+015.1900116978E+01+
*       -3.313657255E+01               0
GRID*               6978               02.0000000000E+015.4397622334E+01+
*       -3.802865995E+01               0
GRID*               6979               02.0000000000E+015.7138159852E+01+
*       -3.660965184E+01               0
GRID*               6980               02.0000000000E+015.7126610165E+01+
*       -3.976774563E+01               0
GRID*               6981               02.0000000000E+015.0218233888E+01+
*       -4.783224638E+01               0
GRID*               6982               02.0000000000E+014.7293434921E+01+
*       -4.784186092E+01               0
GRID*               6983               02.0000000000E+015.1562443230E+01+
*       -4.569608832E+01               0
GRID*               6984               02.0000000000E+015.4428114754E+01+
*       -4.389956535E+01               0
GRID*               6985               02.0000000000E+015.3125947518E+01+
*       -4.874853500E+01               0
GRID*               6986               02.0000000000E+015.9909601636E+01+
*       -4.175635618E+01               0
GRID*               6987               02.0000000000E+016.2514124066E+01+
*       -4.004446660E+01               0
GRID*               6988               02.0000000000E+016.2556578019E+01+
*       -4.345208526E+01               0
GRID*               6989               02.0000000000E+015.7169064118E+01+
*       -4.317536429E+01               0
GRID*               6990               02.0000000000E+015.7211106225E+01+
*       -4.588817589E+01               0
GRID*               6991               02.0000000000E+015.5956399130E+01+
*       -4.873118848E+01               0
GRID*               6992               02.0000000000E+015.8697348495E+01+
*       -4.800698743E+01               0
GRID*               6993               02.0000000000E+016.6878431466E+01+
*       -4.848437558E+01               0
GRID*               6994               02.0000000000E+016.4159044469E+01+
*       -4.868303590E+01               0
GRID*               6995               02.0000000000E+016.7462978688E+01+
*       -4.587090591E+01               0
GRID*               6996               02.0000000000E+016.5230868968E+01+
*       -4.418693750E+01               0
GRID*               6997               02.0000000000E+016.7393210169E+01+
*       -4.342416410E+01               0
GRID*               6998               02.0000000000E+016.9040772667E+01+
*       -4.772160217E+01               0
GRID*               6999               02.0000000000E+016.1484753519E+01+
*       -4.794818366E+01               0
GRID*               7000               02.0000000000E+016.2626346538E+01+
*       -4.589882708E+01               0
GRID*               7001               02.0000000000E+013.6156119620E+01+
*       -4.893338113E+01               0
GRID*               7002               02.0000000000E+013.8904152202E+01+
*       -4.890762020E+01               0
GRID*               7003               02.0000000000E+013.4801724104E+01+
*       -4.631848566E+01               0
GRID*               7004               02.0000000000E+014.4182958779E+01+
*       -4.858435620E+01               0
GRID*               7005               02.0000000000E+014.5544253458E+01+
*       -4.552229498E+01               0
GRID*               7006               02.0000000000E+014.1365317788E+01+
*       -4.874133048E+01               0
GRID*               7007               02.0000000000E+013.9972611731E+01+
*       -4.643107997E+01               0
GRID*               7008               02.0000000000E+013.3986221023E+01+
*       -4.340811808E+01               0
GRID*               7009               02.0000000000E+013.2527031572E+01+
*       -4.060307434E+01               0
GRID*               7010               02.0000000000E+014.5653505155E+01+
*       -4.240775646E+01               0
GRID*               7011               02.0000000000E+014.5802602934E+01+
*       -3.880862176E+01               0
GRID*               7012               02.0000000000E+013.6695943063E+01+
*       -4.368700210E+01               0
GRID*               7013               02.0000000000E+014.1139853068E+01+
*       -4.179815408E+01               0
GRID*               7014               02.0000000000E+013.7753932705E+01+
*       -4.216861473E+01               0
GRID*               7015               02.0000000000E+013.9266360346E+01+
*       -4.040617387E+01               0
GRID*               7016               02.0000000000E+013.8569435786E+01+
*       -4.507898232E+01               0
GRID*               7017               02.0000000000E+014.1030601372E+01+
*       -4.491269260E+01               0
GRID*               7018               02.0000000000E+014.2543029013E+01+
*       -4.315025173E+01               0
GRID*               7019               02.0000000000E+014.6790242627E+01+
*       -3.244181915E+01               0
GRID*               7020               02.0000000000E+014.4563415415E+01+
*       -3.070707043E+01               0
GRID*               7021               02.0000000000E+014.7164234723E+01+
*       -2.966783022E+01               0
GRID*               7022               02.0000000000E+014.6571174238E+01+
*       -3.553129483E+01               0
GRID*               7023               02.0000000000E+014.3420852014E+01+
*       -3.675838628E+01               0
GRID*               7024               02.0000000000E+014.0568577149E+01+
*       -3.726004703E+01               0
GRID*               7025               02.0000000000E+014.1337148453E+01+
*       -3.398272010E+01               0
GRID*               7026               02.0000000000E+013.7182656786E+01+
*       -3.763050768E+01               0
GRID*               7027               02.0000000000E+013.0677356406E+01+
*       -3.751137373E+01               0
GRID*               7028               02.0000000000E+012.9015575112E+01+
*       -3.469539654E+01               0
GRID*               7029               02.0000000000E+013.4030764816E+01+
*       -3.768493391E+01               0
GRID*               7030               02.0000000000E+013.5332981620E+01+
*       -3.453880707E+01               0
GRID*               7031               02.0000000000E+013.6859484059E+01+
*       -3.131685682E+01               0
GRID*               7032               02.0000000000E+013.3707592090E+01+
*       -3.137128305E+01               0
GRID*               7033               02.0000000000E+014.2824442947E+01+
*       -2.883983439E+01               0
GRID*               7034               02.0000000000E+014.0555620389E+01+
*       -2.722657961E+01               0
GRID*               7035               02.0000000000E+014.2668584953E+01+
*       -2.631982672E+01               0
GRID*               7036               02.0000000000E+014.2450450850E+01+
*       -3.161382331E+01               0
GRID*               7037               02.0000000000E+013.9598175985E+01+
*       -3.211548406E+01               0
GRID*               7038               02.0000000000E+013.7816928463E+01+
*       -2.642795237E+01               0
GRID*               7039               02.0000000000E+013.5441880044E+01+
*       -2.483731537E+01               0
GRID*               7040               02.0000000000E+013.8024713977E+01+
*       -2.311593494E+01               0
GRID*               7041               02.0000000000E+013.7972786456E+01+
*       -2.894796004E+01               0
GRID*               7042               02.0000000000E+012.7205537492E+01+
*       -3.182926675E+01               0
GRID*               7043               02.0000000000E+012.5497709290E+01+
*       -2.909110424E+01               0
GRID*               7044               02.0000000000E+013.0371052031E+01+
*       -3.172710351E+01               0
GRID*               7045               02.0000000000E+013.1897554471E+01+
*       -2.850515326E+01               0
GRID*               7046               02.0000000000E+013.2988750382E+01+
*       -2.567034539E+01               0
GRID*               7047               02.0000000000E+012.9652210323E+01+
*       -2.602616585E+01               0
GRID*               7048               02.0000000000E+013.3196535896E+01+
*       -2.235832796E+01               0
GRID*               7049               02.0000000000E+013.1269480016E+01+
*       -2.080470400E+01               0
GRID*               7050               02.0000000000E+013.3722609678E+01+
*       -1.997167397E+01               0
GRID*               7051               02.0000000000E+012.6769252214E+01+
*       -2.595101031E+01               0
GRID*               7052               02.0000000000E+012.7860448125E+01+
*       -2.311620244E+01               0
GRID*               7053               02.0000000000E+012.3705947092E+01+
*       -2.618114083E+01               0
GRID*               7054               02.0000000000E+012.1978104866E+01+
*       -2.361715472E+01               0
GRID*               7055               02.0000000000E+011.5599667402E+01+
*       -1.443566259E+01               0
GRID*               7056               02.0000000000E+011.6981819489E+01+
*       -1.693296617E+01               0
GRID*               7057               02.0000000000E+011.7219191312E+01+
*       -1.143474179E+01               0
GRID*               7058               02.0000000000E+011.8405262794E+01+
*       -9.644721856E+00               0
GRID*               7059               02.0000000000E+011.9355566447E+01+
*       -1.267696905E+01               0
GRID*               7060               02.0000000000E+011.9927273416E+01+
*       -2.149421159E+01               0
GRID*               7061               02.0000000000E+012.2926658567E+01+
*       -2.091810377E+01               0
GRID*               7062               02.0000000000E+011.8334985566E+01+
*       -1.909705200E+01               0
GRID*               7063               02.0000000000E+011.9522661041E+01+
*       -1.663107481E+01               0
GRID*               7064               02.0000000000E+012.8406515087E+01+
*       -1.747211712E+01               0
GRID*               7065               02.0000000000E+012.6672842927E+01+
*       -1.842980763E+01               0
GRID*               7066               02.0000000000E+012.6817454338E+01+
*       -1.647513230E+01               0
GRID*               7067               02.0000000000E+013.0028728737E+01+
*       -1.892242123E+01               0
GRID*               7068               02.0000000000E+012.9502654955E+01+
*       -2.130907521E+01               0
GRID*               7069               02.0000000000E+013.0173340148E+01+
*       -1.696774590E+01               0
GRID*               7070               02.0000000000E+012.6619696846E+01+
*       -2.123391967E+01               0
GRID*               7071               02.0000000000E+012.5030636097E+01+
*       -2.023693486E+01               0
GRID*               7072               02.0000000000E+012.2979804648E+01+
*       -1.811399173E+01               0
GRID*               7073               02.0000000000E+012.5276226985E+01+
*       -1.565040147E+01               0
GRID*               7074               02.0000000000E+012.7009899145E+01+
*       -1.469271095E+01               0
GRID*               7075               02.0000000000E+012.0243326421E+01+
*       -1.446234687E+01               0
GRID*               7076               02.0000000000E+012.1429397903E+01+
*       -1.267232694E+01               0
GRID*               7077               02.0000000000E+012.1596492498E+01+
*       -1.662643270E+01               0
GRID*               7078               02.0000000000E+012.2096041362E+01+
*       -1.119989768E+01               0
GRID*               7079               02.0000000000E+012.2983801336E+01+
*       -1.298527550E+01               0
GRID*               7080               02.0000000000E+012.3892914835E+01+
*       -1.416284244E+01               0
GRID*               7081               02.0000000000E+012.4559558293E+01+
*       -1.269041318E+01               0
GRID*               7082               02.0000000000E+012.3700470028E+01+
*       -1.594526379E+01               0
GRID*               7083               02.0000000000E+019.7448768381E+01+
*       -6.736313338E+01               0
GRID*               7084               02.0000000000E+019.4881451426E+01+
*       -6.573219562E+01               0
GRID*               7085               02.0000000000E+019.7432683044E+01+
*       -6.436906224E+01               0
GRID*               7086               02.0000000000E+019.7448768381E+01+
*       -7.036313338E+01               0
GRID*               7087               02.0000000000E+019.2309164862E+01+
*       -6.412199727E+01               0
GRID*               7088               02.0000000000E+018.9716322527E+01+
*       -6.249608120E+01               0
GRID*               7089               02.0000000000E+019.2272523754E+01+
*       -6.111220841E+01               0
GRID*               7090               02.0000000000E+019.2325250199E+01+
*       -6.711606841E+01               0
GRID*               7091               02.0000000000E+018.7095690260E+01+
*       -6.090417011E+01               0
GRID*               7092               02.0000000000E+018.7132331368E+01+
*       -6.391395898E+01               0
GRID*               7093               02.0000000000E+018.4459976991E+01+
*       -5.926029277E+01               0
GRID*               7094               02.0000000000E+018.7043968150E+01+
*       -5.784241499E+01               0
GRID*               7095               02.0000000000E+018.1728089550E+01+
*       -5.764878586E+01               0
GRID*               7096               02.0000000000E+018.1779811660E+01+
*       -6.071054097E+01               0
GRID*               7097               02.0000000000E+017.9042093876E+01+
*       -5.591942298E+01               0
GRID*               7098               02.0000000000E+018.1722259207E+01+
*       -5.446917478E+01               0
GRID*               7099               02.0000000000E+017.5926901717E+01+
*       -5.413969429E+01               0
GRID*               7100               02.0000000000E+017.5932732060E+01+
*       -5.731930537E+01               0
GRID*               7101               02.0000000000E+017.3399168268E+01+
*       -5.221890857E+01               0
GRID*               7102               02.0000000000E+017.6508530084E+01+
*       -5.081902617E+01               0
GRID*               7103               02.0000000000E+017.1218511040E+01+
*       -4.961665614E+01               0
GRID*               7104               02.0000000000E+017.1803058262E+01+
*       -4.700318648E+01               0
GRID*               7105               02.0000000000E+017.0636882673E+01+
*       -5.293732426E+01               0
GRID*               7106               02.0000000000E+019.7459934315E+01+
*       -7.334754316E+01               0
GRID*               7107               02.0000000000E+019.7459934315E+01+
*       -7.634754316E+01               0
GRID*               7108               02.0000000000E+019.4908702696E+01+
*       -7.171067654E+01               0
GRID*               7109               02.0000000000E+019.2364066158E+01+
*       -7.009998549E+01               0
GRID*               7110               02.0000000000E+019.2375232092E+01+
*       -7.308439527E+01               0
GRID*               7111               02.0000000000E+018.9791779594E+01+
*       -6.848978715E+01               0
GRID*               7112               02.0000000000E+018.7222527965E+01+
*       -6.693093942E+01               0
GRID*               7113               02.0000000000E+018.7261343925E+01+
*       -6.991485649E+01               0
GRID*               7114               02.0000000000E+018.4601895698E+01+
*       -6.533902832E+01               0
GRID*               7115               02.0000000000E+018.1962201705E+01+
*       -6.383262529E+01               0
GRID*               7116               02.0000000000E+018.2052398302E+01+
*       -6.684960573E+01               0
GRID*               7117               02.0000000000E+017.9230314264E+01+
*       -6.222111838E+01               0
GRID*               7118               02.0000000000E+017.6646170729E+01+
*       -6.388168250E+01               0
GRID*               7119               02.0000000000E+017.6463780684E+01+
*       -6.075959818E+01               0
GRID*               7120               02.0000000000E+016.9545788479E+01+
*       -5.550213609E+01               0
GRID*               7121               02.0000000000E+017.0912877332E+01+
*       -5.775102387E+01               0
GRID*               7122               02.0000000000E+016.7641125910E+01+
*       -5.771358327E+01               0
GRID*               7123               02.0000000000E+017.3348588525E+01+
*       -5.897986949E+01               0
GRID*               7124               02.0000000000E+017.1443925956E+01+
*       -6.119131667E+01               0
GRID*               7125               02.0000000000E+015.6143752994E+01+
*       -8.175739984E+01               0
GRID*               7126               02.0000000000E+015.7698743549E+01+
*       -8.428651612E+01               0
GRID*               7127               02.0000000000E+015.7506938741E+01+
*       -7.912466795E+01               0
GRID*               7128               02.0000000000E+015.8851714511E+01+
*       -7.655269845E+01               0
GRID*               7129               02.0000000000E+016.0386657547E+01+
*       -7.907211586E+01               0
GRID*               7130               02.0000000000E+016.0232170948E+01+
*       -7.394055120E+01               0
GRID*               7131               02.0000000000E+016.1677474108E+01+
*       -7.142579730E+01               0
GRID*               7132               02.0000000000E+016.3176736477E+01+
*       -7.398539246E+01               0
GRID*               7133               02.0000000000E+016.3079539045E+01+
*       -6.876652437E+01               0
GRID*               7134               02.0000000000E+016.4898401930E+01+
*       -6.598795387E+01               0
GRID*               7135               02.0000000000E+016.6440902523E+01+
*       -6.869206807E+01               0
GRID*               7136               02.0000000000E+016.6108525780E+01+
*       -6.326284147E+01               0
GRID*               7137               02.0000000000E+016.6482750457E+01+
*       -6.028732820E+01               0
GRID*               7138               02.0000000000E+016.8633990086E+01+
*       -6.293798431E+01               0
GRID*               7139               02.0000000000E+015.9270063825E+01+
*       -8.677439083E+01               0
GRID*               7140               02.0000000000E+016.0857175317E+01+
*       -8.930433861E+01               0
GRID*               7141               02.0000000000E+016.0613202052E+01+
*       -8.413196006E+01               0
GRID*               7142               02.0000000000E+016.1885832283E+01+
*       -8.151909052E+01               0
GRID*               7143               02.0000000000E+016.3457152559E+01+
*       -8.400696523E+01               0
GRID*               7144               02.0000000000E+016.3230608054E+01+
*       -7.894712102E+01               0
GRID*               7145               02.0000000000E+016.4467207607E+01+
*       -7.652254822E+01               0
GRID*               7146               02.0000000000E+016.5966382344E+01+
*       -7.896952288E+01               0
GRID*               7147               02.0000000000E+016.5912510767E+01+
*       -7.400779431E+01               0
GRID*               7148               02.0000000000E+016.7442913131E+01+
*       -7.187948147E+01               0
GRID*               7149               02.0000000000E+016.8733384261E+01+
*       -7.441663723E+01               0
GRID*               7150               02.0000000000E+017.1069701279E+01+
*       -6.416682993E+01               0
GRID*               7151               02.0000000000E+017.4193307937E+01+
*       -6.550778931E+01               0
GRID*               7152               02.0000000000E+017.1383372066E+01+
*       -6.725445695E+01               0
GRID*               7153               02.0000000000E+016.9261776017E+01+
*       -6.910091098E+01               0
GRID*               7154               02.0000000000E+017.2385382675E+01+
*       -7.044187035E+01               0
GRID*               7155               02.0000000000E+019.7315845630E+01+
*       -1.061467839E+02               0
GRID*               7156               02.0000000000E+019.7315845630E+01+
*       -1.031467839E+02               0
GRID*               7157               02.0000000000E+019.7229035331E+01+
*       -1.090860767E+02               0
GRID*               7158               02.0000000000E+019.7229035331E+01+
*       -1.120860767E+02               0
GRID*               7159               02.0000000000E+019.4544880961E+01+
*       -1.072328606E+02               0
GRID*               7160               02.0000000000E+019.1829452045E+01+
*       -1.083496705E+02               0
GRID*               7161               02.0000000000E+019.1916262343E+01+
*       -1.054103777E+02               0
GRID*               7162               02.0000000000E+018.9002499023E+01+
*       -1.094370080E+02               0
GRID*               7163               02.0000000000E+018.6316850660E+01+
*       -1.105234278E+02               0
GRID*               7164               02.0000000000E+018.6515185065E+01+
*       -1.076136073E+02               0
GRID*               7165               02.0000000000E+019.1631117640E+01+
*       -1.112594909E+02               0
GRID*               7166               02.0000000000E+019.7078209928E+01+
*       -1.149576710E+02               0
GRID*               7167               02.0000000000E+019.7078209928E+01+
*       -1.179576710E+02               0
GRID*               7168               02.0000000000E+019.4307245259E+01+
*       -1.130437476E+02               0
GRID*               7169               02.0000000000E+019.1480292237E+01+
*       -1.141310852E+02               0
GRID*               7170               02.0000000000E+018.3513704776E+01+
*       -1.114425209E+02               0
GRID*               7171               02.0000000000E+018.0996190765E+01+
*       -1.124925867E+02               0
GRID*               7172               02.0000000000E+018.1312022692E+01+
*       -1.097500929E+02               0
GRID*               7173               02.0000000000E+019.7856908220E+01+
*       -1.220396904E+02               0
GRID*               7174               02.0000000000E+019.7856908220E+01+
*       -1.250396904E+02               0
GRID*               7175               02.0000000000E+018.6001018734E+01+
*       -1.132659216E+02               0
GRID*               7176               02.0000000000E+019.3913889909E+01+
*       -1.182914321E+02               0
GRID*               7177               02.0000000000E+019.6835679981E+01+
*       -1.203337612E+02               0
GRID*               7178               02.0000000000E+018.8446262174E+01+
*       -1.155340986E+02               0
GRID*               7179               02.0000000000E+018.5643116290E+01+
*       -1.164531917E+02               0
GRID*               7180               02.0000000000E+019.4692588201E+01+
*       -1.223734516E+02               0
GRID*               7181               02.0000000000E+019.1122389793E+01+
*       -1.173183553E+02               0
GRID*               7182               02.0000000000E+019.0879859847E+01+
*       -1.196944455E+02               0
GRID*               7183               02.0000000000E+018.6311344144E+01+
*       -1.267861616E+02               0
GRID*               7184               02.0000000000E+018.7753402175E+01+
*       -1.243147168E+02               0
GRID*               7185               02.0000000000E+018.9323937290E+01+
*       -1.268591966E+02               0
GRID*               7186               02.0000000000E+018.3231389549E+01+
*       -1.267845431E+02               0
GRID*               7187               02.0000000000E+018.1680120480E+01+
*       -1.242515201E+02               0
GRID*               7188               02.0000000000E+018.4801924664E+01+
*       -1.293290229E+02               0
GRID*               7189               02.0000000000E+018.6361482942E+01+
*       -1.318699244E+02               0
GRID*               7190               02.0000000000E+018.9427177526E+01+
*       -1.215545603E+02               0
GRID*               7191               02.0000000000E+019.2218677642E+01+
*       -1.225276371E+02               0
GRID*               7192               02.0000000000E+018.6414584380E+01+
*       -1.214815252E+02               0
GRID*               7193               02.0000000000E+017.8668697093E+01+
*       -1.130975000E+02               0
GRID*               7194               02.0000000000E+018.0870379177E+01+
*       -1.147899280E+02               0
GRID*               7195               02.0000000000E+017.5951864164E+01+
*       -1.143722567E+02               0
GRID*               7196               02.0000000000E+017.7121363391E+01+
*       -1.173220978E+02               0
GRID*               7197               02.0000000000E+017.6077675752E+01+
*       -1.120749154E+02               0
GRID*               7198               02.0000000000E+018.0030841230E+01+
*       -1.218010685E+02               0
GRID*               7199               02.0000000000E+018.3091529779E+01+
*       -1.217912302E+02               0
GRID*               7200               02.0000000000E+017.8571045903E+01+
*       -1.192950664E+02               0
GRID*               7201               02.0000000000E+017.9992568017E+01+
*       -1.173678099E+02               0
GRID*               7202               02.0000000000E+018.2320061689E+01+
*       -1.167628966E+02               0
GRID*               7203               02.0000000000E+018.4765305130E+01+
*       -1.190310736E+02               0
GRID*               7204               02.0000000000E+019.7227209235E+01+
*       -1.276287303E+02               0
GRID*               7205               02.0000000000E+019.7227209235E+01+
*       -1.306287303E+02               0
GRID*               7206               02.0000000000E+019.5084117455E+01+
*       -1.266684207E+02               0
GRID*               7207               02.0000000000E+019.3239905881E+01+
*       -1.242335663E+02               0
GRID*               7208               02.0000000000E+019.2610206896E+01+
*       -1.268226062E+02               0
GRID*               7209               02.0000000000E+019.7967312022E+01+
*       -1.332860970E+02               0
GRID*               7210               02.0000000000E+019.7967312022E+01+
*       -1.362860970E+02               0
GRID*               7211               02.0000000000E+019.5194521258E+01+
*       -1.319148273E+02               0
GRID*               7212               02.0000000000E+019.2679444316E+01+
*       -1.318145704E+02               0
GRID*               7213               02.0000000000E+019.3419547103E+01+
*       -1.344719372E+02               0
GRID*               7214               02.0000000000E+019.1168148865E+01+
*       -1.292940510E+02               0
GRID*               7215               02.0000000000E+018.9393174710E+01+
*       -1.318511609E+02               0
GRID*               7216               02.0000000000E+018.7872778393E+01+
*       -1.343904438E+02               0
GRID*               7217               02.0000000000E+018.9468921526E+01+
*       -1.369090643E+02               0
GRID*               7218               02.0000000000E+019.1185868408E+01+
*       -1.392793193E+02               0
GRID*               7219               02.0000000000E+019.2860850593E+01+
*       -1.418318785E+02               0
GRID*               7220               02.0000000000E+019.2621417044E+01+
*       -1.367419353E+02               0
GRID*               7221               02.0000000000E+019.5136493985E+01+
*       -1.368421922E+02               0
GRID*               7222               02.0000000000E+019.7169181963E+01+
*       -1.385560952E+02               0
GRID*               7223               02.0000000000E+019.7169181963E+01+
*       -1.415560952E+02               0
GRID*               7224               02.0000000000E+019.6969696970E+01+
*       -1.470000000E+02               0
GRID*               7225               02.0000000000E+019.5691668630E+01+
*       -1.442757833E+02               0
GRID*               7226               02.0000000000E+019.2397486326E+01+
*       -7.603899322E+01               0
GRID*               7227               02.0000000000E+018.9852849788E+01+
*       -7.442830217E+01               0
GRID*               7228               02.0000000000E+019.4922046447E+01+
*       -7.767214925E+01               0
GRID*               7229               02.0000000000E+019.7462112132E+01+
*       -7.932460609E+01               0
GRID*               7230               02.0000000000E+019.2399664143E+01+
*       -7.901605615E+01               0
GRID*               7231               02.0000000000E+019.2396478648E+01+
*       -8.194675134E+01               0
GRID*               7232               02.0000000000E+018.9871918527E+01+
*       -8.031359530E+01               0
GRID*               7233               02.0000000000E+019.2386290472E+01+
*       -8.491019624E+01               0
GRID*               7234               02.0000000000E+019.2355492702E+01+
*       -8.782860935E+01               0
GRID*               7235               02.0000000000E+018.9837935261E+01+
*       -8.616270359E+01               0
GRID*               7236               02.0000000000E+019.4914036089E+01+
*       -8.361265709E+01               0
GRID*               7237               02.0000000000E+019.7462112132E+01+
*       -8.232460609E+01               0
GRID*               7238               02.0000000000E+019.7451923957E+01+
*       -8.528805100E+01               0
GRID*               7239               02.0000000000E+019.7426669984E+01+
*       -9.124487448E+01               0
GRID*               7240               02.0000000000E+019.7426669984E+01+
*       -9.424487448E+01               0
GRID*               7241               02.0000000000E+019.7451923957E+01+
*       -8.828805100E+01               0
GRID*               7242               02.0000000000E+019.4878593940E+01+
*       -8.953292548E+01               0
GRID*               7243               02.0000000000E+019.2330238729E+01+
*       -9.078543283E+01               0
GRID*               7244               02.0000000000E+019.7384850313E+01+
*       -9.719862882E+01               0
GRID*               7245               02.0000000000E+019.4811520297E+01+
*       -9.544350330E+01               0
GRID*               7246               02.0000000000E+019.7384850313E+01+
*       -1.001986288E+02               0
GRID*               7247               02.0000000000E+019.4700695943E+01+
*       -1.013454128E+02               0
GRID*               7248               02.0000000000E+019.2265121967E+01+
*       -9.369316267E+01               0
GRID*               7249               02.0000000000E+018.9742020729E+01+
*       -9.198884653E+01               0
GRID*               7250               02.0000000000E+019.2223302297E+01+
*       -9.664691700E+01               0
GRID*               7251               02.0000000000E+019.2053837843E+01+
*       -1.025042175E+02               0
GRID*               7252               02.0000000000E+018.9338408926E+01+
*       -1.036210273E+02               0
GRID*               7253               02.0000000000E+019.2122842526E+01+
*       -9.955606234E+01               0
GRID*               7254               02.0000000000E+018.9576444196E+01+
*       -9.780572171E+01               0
GRID*               7255               02.0000000000E+018.7333765986E+01+
*       -7.286348940E+01               0
GRID*               7256               02.0000000000E+018.4764514357E+01+
*       -7.130464166E+01               0
GRID*               7257               02.0000000000E+018.7380855828E+01+
*       -7.871977222E+01               0
GRID*               7258               02.0000000000E+018.7377670333E+01+
*       -8.165046740E+01               0
GRID*               7259               02.0000000000E+018.7356020220E+01+
*       -7.581808734E+01               0
GRID*               7260               02.0000000000E+018.4861772026E+01+
*       -7.715495944E+01               0
GRID*               7261               02.0000000000E+018.7370198607E+01+
*       -8.454235250E+01               0
GRID*               7262               02.0000000000E+018.4879135908E+01+
*       -8.294852941E+01               0
GRID*               7263               02.0000000000E+018.7339400836E+01+
*       -8.746076560E+01               0
GRID*               7264               02.0000000000E+018.7295599877E+01+
*       -9.031834901E+01               0
GRID*               7265               02.0000000000E+018.4827863223E+01+
*       -8.869799792E+01               0
GRID*               7266               02.0000000000E+018.7230483116E+01+
*       -9.322607885E+01               0
GRID*               7267               02.0000000000E+018.7108057975E+01+
*       -9.607419256E+01               0
GRID*               7268               02.0000000000E+018.4661637124E+01+
*       -9.440369504E+01               0
GRID*               7269               02.0000000000E+018.7007598204E+01+
*       -9.898333789E+01               0
GRID*               7270               02.0000000000E+018.6706816723E+01+
*       -1.047697687E+02               0
GRID*               7271               02.0000000000E+018.4021168361E+01+
*       -1.058561885E+02               0
GRID*               7272               02.0000000000E+018.6844392223E+01+
*       -1.018636085E+02               0
GRID*               7273               02.0000000000E+018.4376006002E+01+
*       -1.001320793E+02               0
GRID*               7274               02.0000000000E+018.2232388617E+01+
*       -6.983058224E+01               0
GRID*               7275               02.0000000000E+017.9592694624E+01+
*       -6.832417921E+01               0
GRID*               7276               02.0000000000E+018.2427610673E+01+
*       -7.852660689E+01               0
GRID*               7277               02.0000000000E+018.2402775064E+01+
*       -7.562492201E+01               0
GRID*               7278               02.0000000000E+018.2397091833E+01+
*       -8.139385611E+01               0
GRID*               7279               02.0000000000E+017.9938094872E+01+
*       -7.986381867E+01               0
GRID*               7280               02.0000000000E+018.2304810678E+01+
*       -7.277921514E+01               0
GRID*               7281               02.0000000000E+017.9870649325E+01+
*       -7.415086259E+01               0
GRID*               7282               02.0000000000E+018.2389620107E+01+
*       -8.428574120E+01               0
GRID*               7283               02.0000000000E+018.2445449384E+01+
*       -8.715164907E+01               0
GRID*               7284               02.0000000000E+018.2401648425E+01+
*       -9.000923248E+01               0
GRID*               7285               02.0000000000E+017.9963405309E+01+
*       -8.559697576E+01               0
GRID*               7286               02.0000000000E+018.2346003088E+01+
*       -9.272792927E+01               0
GRID*               7287               02.0000000000E+017.9963589249E+01+
*       -9.118158042E+01               0
GRID*               7288               02.0000000000E+018.2223577947E+01+
*       -9.557604298E+01               0
GRID*               7289               02.0000000000E+018.1924773324E+01+
*       -9.839940020E+01               0
GRID*               7290               02.0000000000E+017.9609139288E+01+
*       -9.672363444E+01               0
GRID*               7291               02.0000000000E+018.1761567342E+01+
*       -1.012796708E+02               0
GRID*               7292               02.0000000000E+018.1446584450E+01+
*       -1.070456772E+02               0
GRID*               7293               02.0000000000E+017.8929070439E+01+
*       -1.080957430E+02               0
GRID*               7294               02.0000000000E+018.1638216109E+01+
*       -1.042018387E+02               0
GRID*               7295               02.0000000000E+017.9186983431E+01+
*       -1.024691595E+02               0
GRID*               7296               02.0000000000E+017.7054620145E+01+
*       -9.762131203E+01               0
GRID*               7297               02.0000000000E+017.7353424769E+01+
*       -9.479795481E+01               0
GRID*               7298               02.0000000000E+017.6282628505E+01+
*       -1.008767792E+02               0
GRID*               7299               02.0000000000E+017.6159277271E+01+
*       -1.037989470E+02               0
GRID*               7300               02.0000000000E+017.4026913986E+01+
*       -9.895109955E+01               0
GRID*               7301               02.0000000000E+017.1098379270E+01+
*       -9.942703593E+01               0
GRID*               7302               02.0000000000E+017.1870370910E+01+
*       -9.617156878E+01               0
GRID*               7303               02.0000000000E+016.7603796766E+01+
*       -9.952250680E+01               0
GRID*               7304               02.0000000000E+016.5879249949E+01+
*       -9.687631841E+01               0
GRID*               7305               02.0000000000E+016.9760339841E+01+
*       -1.023020376E+02               0
GRID*               7306               02.0000000000E+017.6822951725E+01+
*       -1.093780735E+02               0
GRID*               7307               02.0000000000E+017.6957513483E+01+
*       -1.066736579E+02               0
GRID*               7308               02.0000000000E+017.4106118796E+01+
*       -1.106528303E+02               0
GRID*               7309               02.0000000000E+017.2196336376E+01+
*       -1.079147432E+02               0
GRID*               7310               02.0000000000E+017.4053158557E+01+
*       -1.050812775E+02               0
GRID*               7311               02.0000000000E+017.1398100164E+01+
*       -1.050400324E+02               0
GRID*               7312               02.0000000000E+016.5094434447E+01+
*       -8.642006643E+01               0
GRID*               7313               02.0000000000E+016.6367064678E+01+
*       -8.380719689E+01               0
GRID*               7314               02.0000000000E+017.0099844500E+01+
*       -9.390412447E+01               0
GRID*               7315               02.0000000000E+017.3028379217E+01+
*       -9.342818810E+01               0
GRID*               7316               02.0000000000E+016.3821310982E+01+
*       -8.911942710E+01               0
GRID*               7317               02.0000000000E+016.2493963971E+01+
*       -9.180393094E+01               0
GRID*               7318               02.0000000000E+016.6731223101E+01+
*       -8.891965876E+01               0
GRID*               7319               02.0000000000E+016.9631099686E+01+
*       -8.869052094E+01               0
GRID*               7320               02.0000000000E+016.8357976222E+01+
*       -9.138988161E+01               0
GRID*               7321               02.0000000000E+016.7199967915E+01+
*       -9.413326229E+01               0
GRID*               7322               02.0000000000E+016.4137381670E+01+
*       -9.436207554E+01               0
GRID*               7323               02.0000000000E+017.7199181864E+01+
*       -8.708287798E+01               0
GRID*               7324               02.0000000000E+017.7143352587E+01+
*       -8.421697011E+01               0
GRID*               7325               02.0000000000E+017.5448955616E+01+
*       -9.336747984E+01               0
GRID*               7326               02.0000000000E+017.3678429206E+01+
*       -9.110003554E+01               0
GRID*               7327               02.0000000000E+017.8003474758E+01+
*       -9.246980225E+01               0
GRID*               7328               02.0000000000E+017.8059120096E+01+
*       -8.975110546E+01               0
GRID*               7329               02.0000000000E+017.2818490974E+01+
*       -8.843180806E+01               0
GRID*               7330               02.0000000000E+017.1191737854E+01+
*       -8.596158520E+01               0
GRID*               7331               02.0000000000E+017.5239067374E+01+
*       -8.837109980E+01               0
GRID*               7332               02.0000000000E+016.7449862245E+01+
*       -8.117860487E+01               0
GRID*               7333               02.0000000000E+016.8686461799E+01+
*       -7.875403206E+01               0
GRID*               7334               02.0000000000E+016.9087144133E+01+
*       -8.359170606E+01               0
GRID*               7335               02.0000000000E+017.2274535421E+01+
*       -8.333299318E+01               0
GRID*               7336               02.0000000000E+017.7560637773E+01+
*       -8.111751339E+01               0
GRID*               7337               02.0000000000E+017.7591156612E+01+
*       -7.825026417E+01               0
GRID*               7338               02.0000000000E+017.4796414328E+01+
*       -8.260341560E+01               0
GRID*               7339               02.0000000000E+017.2691820607E+01+
*       -8.023353646E+01               0
GRID*               7340               02.0000000000E+017.0893191180E+01+
*       -7.883261646E+01               0
GRID*               7341               02.0000000000E+017.3415070086E+01+
*       -7.810303888E+01               0
GRID*               7342               02.0000000000E+016.9409711278E+01+
*       -7.662353448E+01               0
GRID*               7343               02.0000000000E+017.0940113642E+01+
*       -7.449522163E+01               0
GRID*               7344               02.0000000000E+017.4864370517E+01+
*       -7.142086707E+01               0
GRID*               7345               02.0000000000E+017.2742774467E+01+
*       -7.326732110E+01               0
GRID*               7346               02.0000000000E+017.6959841516E+01+
*       -6.696930951E+01               0
GRID*               7347               02.0000000000E+017.7139831831E+01+
*       -6.995028602E+01               0
GRID*               7348               02.0000000000E+017.7497223624E+01+
*       -7.277573676E+01               0
GRID*               7349               02.0000000000E+017.3419101484E+01+
*       -7.547421835E+01               0
GRID*               7350               02.0000000000E+017.7595188010E+01+
*       -7.562144364E+01               0
GRID*               7351               02.0000000000E+017.5217730911E+01+
*       -7.687513835E+01               0
GRID*               7352               02.0000000000E+012.2675222195E+01+
*       -8.089741188E+00               0
GRID*               7353               02.0000000000E+012.3250407929E+01+
*       -8.275975092E+00               0
GRID*               7354               02.0000000000E+012.0250322267E+01+
*       -9.179039124E+00               0
GRID*               7355               02.0000000000E+012.1226555295E+01+
*       -8.132185032E+00               0
GRID*               7356               02.0000000000E+012.1517870958E+01+
*       -9.840095028E+00               0
GRID*               7357               02.0000000000E+012.1945531483E+01+
*       -7.904657245E+00               0
GRID*               7358               02.0000000000E+012.5516994258E+01+
*       -1.050466858E+01               0
GRID*               7359               02.0000000000E+012.6750233892E+01+
*       -1.097987344E+01               0
GRID*               7360               02.0000000000E+012.4404256618E+01+
*       -1.047187864E+01               0
GRID*               7361               02.0000000000E+012.4763182435E+01+
*       -1.154563618E+01               0
GRID*               7362               02.0000000000E+012.3072274390E+01+
*       -1.015304359E+01               0
GRID*               7363               02.0000000000E+012.3826086213E+01+
*       -9.112075989E+00               0
GRID*               7364               02.0000000000E+019.7432683044E+01+
*       -6.136906224E+01               0
GRID*               7365               02.0000000000E+019.4854201475E+01+
*       -5.973673000E+01               0
GRID*               7366               02.0000000000E+019.2261359140E+01+
*       -5.811081392E+01               0
GRID*               7367               02.0000000000E+012.7976215716E+01+
*       -1.407856035E+01               0
GRID*               7368               02.0000000000E+012.8532917286E+01+
*       -1.244002435E+01               0
GRID*               7369               02.0000000000E+012.9107828069E+01+
*       -1.387890579E+01               0
GRID*               7370               02.0000000000E+012.6434988362E+01+
*       -1.325382951E+01               0
GRID*               7371               02.0000000000E+012.7512926321E+01+
*       -1.151049984E+01               0
GRID*               7372               02.0000000000E+012.6638612504E+01+
*       -1.210905252E+01               0
GRID*               7373               02.0000000000E+012.5672295934E+01+
*       -1.272320312E+01               0
GRID*               7374               02.0000000000E+018.9663874697E+01+
*       -5.647621877E+01               0
GRID*               7375               02.0000000000E+018.7028161428E+01+
*       -5.483234143E+01               0
GRID*               7376               02.0000000000E+018.4424206332E+01+
*       -5.317225861E+01               0
GRID*               7377               02.0000000000E+018.1738210658E+01+
*       -5.144289574E+01               0
GRID*               7378               02.0000000000E+017.9196745282E+01+
*       -4.973157999E+01               0
GRID*               7379               02.0000000000E+017.6669011832E+01+
*       -4.781079426E+01               0
GRID*               7380               02.0000000000E+017.4302597959E+01+
*       -4.608297435E+01               0
GRID*               7381               02.0000000000E+017.2124859586E+01+
*       -4.418792038E+01               0
GRID*               7382               02.0000000000E+013.0351739995E+01+
*       -1.496369244E+01               0
GRID*               7383               02.0000000000E+013.1973953645E+01+
*       -1.641399656E+01               0
GRID*               7384               02.0000000000E+016.9950556352E+01+
*       -4.247578632E+01               0
GRID*               7385               02.0000000000E+016.7718446632E+01+
*       -4.079181791E+01               0
GRID*               7386               02.0000000000E+016.5481435354E+01+
*       -3.849243133E+01               0
GRID*               7387               02.0000000000E+016.2834458971E+01+
*       -3.679670225E+01               0
GRID*               7388               02.0000000000E+015.9749247008E+01+
*       -3.514748572E+01               0
GRID*               7389               02.0000000000E+015.7020259177E+01+
*       -3.340840004E+01               0
GRID*               7390               02.0000000000E+015.4374130245E+01+
*       -3.186452643E+01               0
GRID*               7391               02.0000000000E+015.1865075203E+01+
*       -3.013053283E+01               0
GRID*               7392               02.0000000000E+014.9510684728E+01+
*       -2.862577259E+01               0
GRID*               7393               02.0000000000E+014.7283857516E+01+
*       -2.689102387E+01               0
GRID*               7394               02.0000000000E+014.5132870651E+01+
*       -2.518788065E+01               0
GRID*               7395               02.0000000000E+014.2864048093E+01+
*       -2.357462586E+01               0
GRID*               7396               02.0000000000E+014.0396451667E+01+
*       -2.153925363E+01               0
GRID*               7397               02.0000000000E+013.8021403248E+01+
*       -1.994861663E+01               0
GRID*               7398               02.0000000000E+013.3614814660E+01+
*       -1.750490684E+01               0
GRID*               7399               02.0000000000E+013.5541870540E+01+
*       -1.905853080E+01               0
GRID*               7400               02.0000000000E+01-3.994780975E+00+
*       -2.028801416E+01               0
GRID*               7401               02.0000000000E+01-5.318659013E+00+
*       -2.290042389E+01               0
GRID*               7402               02.0000000000E+01-2.884692173E+00+
*       -1.750848436E+01               0
GRID*               7403               02.0000000000E+01-1.506635786E+00+
*       -1.489601023E+01               0
GRID*               7404               02.0000000000E+01-5.699505887E+00+
*       -1.762885889E+01               0
GRID*               7405               02.0000000000E+01-8.299354874E+00+
*       -1.828343072E+01               0
GRID*               7406               02.0000000000E+01-7.189266072E+00+
*       -1.550390093E+01               0
GRID*               7407               02.0000000000E+011.5345590974E-01+
*       -1.246710379E+01               0
GRID*               7408               02.0000000000E+01-2.929325389E+00+
*       -1.242042266E+01               0
GRID*               7409               02.0000000000E+01-5.331969572E+00+
*       -1.232148135E+01               0
GRID*               7410               02.0000000000E+01-6.598757152E+00+
*       -1.366079830E+01               0
GRID*               7411               02.0000000000E+01-9.198606139E+00+
*       -1.431537013E+01               0
GRID*               7412               02.0000000000E+01-7.341309639E+00+
*       -1.113295055E+01               0
GRID*               7413               02.0000000000E+01-1.112059649E+01+
*       -1.093285506E+01               0
GRID*               7414               02.0000000000E+01-1.270610462E+01+
*       -1.071260399E+01               0
GRID*               7415               02.0000000000E+01-9.254577414E+00+
*       -1.095689272E+01               0
GRID*               7416               02.0000000000E+01-1.047411629E+01+
*       -1.244822984E+01               0
GRID*               7417               02.0000000000E+01-1.106462521E+01+
*       -1.429133247E+01               0
GRID*               7418               02.0000000000E+01-8.324638575E+01+
*       -1.473726833E+02               0
GRID*               7419               02.0000000000E+01-8.627668878E+01+
*       -1.473726833E+02               0
GRID*               7420               02.0000000000E+01-8.022492554E+01+
*       -1.474111849E+02               0
GRID*               7421               02.0000000000E+01-7.719462251E+01+
*       -1.474111849E+02               0
GRID*               7422               02.0000000000E+01-8.165312948E+01+
*       -1.447838682E+02               0
GRID*               7423               02.0000000000E+01-8.302850742E+01+
*       -1.422404087E+02               0
GRID*               7424               02.0000000000E+01-8.000704720E+01+
*       -1.422789104E+02               0
GRID*               7425               02.0000000000E+01-7.419693711E+01+
*       -1.474017956E+02               0
GRID*               7426               02.0000000000E+01-7.563398387E+01+
*       -1.448129805E+02               0
GRID*               7427               02.0000000000E+01-7.116663408E+01+
*       -1.474017956E+02               0
GRID*               7428               02.0000000000E+01-6.963151308E+01+
*       -1.447802744E+02               0
GRID*               7429               02.0000000000E+01-7.707567014E+01+
*       -1.422579427E+02               0
GRID*               7430               02.0000000000E+01-7.407798474E+01+
*       -1.422485534E+02               0
GRID*               7431               02.0000000000E+01-7.845104807E+01+
*       -1.397144832E+02               0
GRID*               7432               02.0000000000E+01-7.988076401E+01+
*       -1.372483897E+02               0
GRID*               7433               02.0000000000E+01-7.694938694E+01+
*       -1.372274221E+02               0
GRID*               7434               02.0000000000E+01-7.110088748E+01+
*       -1.421941292E+02               0
GRID*               7435               02.0000000000E+01-7.254257374E+01+
*       -1.396390914E+02               0
GRID*               7436               02.0000000000E+01-6.809610208E+01+
*       -1.421708125E+02               0
GRID*               7437               02.0000000000E+01-6.657581206E+01+
*       -1.395332274E+02               0
GRID*               7438               02.0000000000E+01-7.400363820E+01+
*       -1.370917171E+02               0
GRID*               7439               02.0000000000E+01-7.102654094E+01+
*       -1.370372929E+02               0
GRID*               7440               02.0000000000E+01-7.543335413E+01+
*       -1.346256236E+02               0
GRID*               7441               02.0000000000E+01-7.694459112E+01+
*       -1.320969750E+02               0
GRID*               7442               02.0000000000E+01-7.399884238E+01+
*       -1.319612700E+02               0
GRID*               7443               02.0000000000E+01-1.551663234E+01+
*       -4.099635522E+01               0
GRID*               7444               02.0000000000E+01-1.713352529E+01+
*       -4.369180620E+01               0
GRID*               7445               02.0000000000E+01-1.692434539E+01+
*       -3.830304902E+01               0
GRID*               7446               02.0000000000E+01-1.399065404E+01+
*       -3.838607845E+01               0
GRID*               7447               02.0000000000E+01-9.487005804E+00+
*       -3.049214216E+01               0
GRID*               7448               02.0000000000E+01-1.089106691E+01+
*       -2.789774251E+01               0
GRID*               7449               02.0000000000E+01-8.016039694E+00+
*       -2.796111788E+01               0
GRID*               7450               02.0000000000E+01-1.095260572E+01+
*       -3.310570711E+01               0
GRID*               7451               02.0000000000E+01-1.247077276E+01+
*       -3.573770984E+01               0
GRID*               7452               02.0000000000E+01-1.388020006E+01+
*       -3.306076952E+01               0
GRID*               7453               02.0000000000E+01-6.803781569E+01+
*       -1.369473949E+02               0
GRID*               7454               02.0000000000E+01-6.949888014E+01+
*       -1.344000205E+02               0
GRID*               7455               02.0000000000E+01-6.504815127E+01+
*       -1.368959551E+02               0
GRID*               7456               02.0000000000E+01-6.353507976E+01+
*       -1.342409441E+02               0
GRID*               7457               02.0000000000E+01-7.094656344E+01+
*       -1.318244845E+02               0
GRID*               7458               02.0000000000E+01-6.795783820E+01+
*       -1.317345865E+02               0
GRID*               7459               02.0000000000E+01-7.245780044E+01+
*       -1.292958360E+02               0
GRID*               7460               02.0000000000E+01-7.388411574E+01+
*       -1.266685287E+02               0
GRID*               7461               02.0000000000E+01-7.083183680E+01+
*       -1.265317432E+02               0
GRID*               7462               02.0000000000E+01-1.880671824E+01+
*       -4.620082488E+01               0
GRID*               7463               02.0000000000E+01-2.012351664E+01+
*       -4.342234448E+01               0
GRID*               7464               02.0000000000E+01-2.074841897E+01+
*       -4.917610991E+01               0
GRID*               7465               02.0000000000E+01-6.497380422E+01+
*       -1.316532903E+02               0
GRID*               7466               02.0000000000E+01-6.642148753E+01+
*       -1.290777543E+02               0
GRID*               7467               02.0000000000E+01-6.199872909E+01+
*       -1.315841119E+02               0
GRID*               7468               02.0000000000E+01-6.048979673E+01+
*       -1.289193970E+02               0
GRID*               7469               02.0000000000E+01-2.263657752E+01+
*       -5.139864450E+01               0
GRID*               7470               02.0000000000E+01-2.368486814E+01+
*       -4.815389774E+01               0
GRID*               7471               02.0000000000E+01-2.219400956E+01+
*       -5.377746574E+01               0
GRID*               7472               02.0000000000E+01-2.513045873E+01+
*       -5.275525357E+01               0
GRID*               7473               02.0000000000E+01-2.316927448E+01+
*       -5.700759024E+01               0
GRID*               7474               02.0000000000E+01-6.781796770E+01+
*       -1.264970301E+02               0
GRID*               7475               02.0000000000E+01-6.483393372E+01+
*       -1.264157340E+02               0
GRID*               7476               02.0000000000E+01-6.924428300E+01+
*       -1.238697229E+02               0
GRID*               7477               02.0000000000E+01-7.054721402E+01+
*       -1.212958215E+02               0
GRID*               7478               02.0000000000E+01-6.753334492E+01+
*       -1.212611084E+02               0
GRID*               7479               02.0000000000E+01-6.190255575E+01+
*       -1.263476435E+02               0
GRID*               7480               02.0000000000E+01-6.329903593E+01+
*       -1.237669193E+02               0
GRID*               7481               02.0000000000E+01-5.895489893E+01+
*       -1.262705823E+02               0
GRID*               7482               02.0000000000E+01-5.745877497E+01+
*       -1.236041922E+02               0
GRID*               7483               02.0000000000E+01-2.691281337E+01+
*       -5.480285893E+01               0
GRID*               7484               02.0000000000E+01-2.589334617E+01+
*       -5.723766937E+01               0
GRID*               7485               02.0000000000E+01-2.811826877E+01+
*       -5.690645349E+01               0
GRID*               7486               02.0000000000E+01-2.735538133E+01+
*       -5.242403768E+01               0
GRID*               7487               02.0000000000E+01-2.437472987E+01+
*       -5.911118480E+01               0
GRID*               7488               02.0000000000E+01-2.569817681E+01+
*       -6.179024447E+01               0
GRID*               7489               02.0000000000E+01-6.465957191E+01+
*       -1.212307785E+02               0
GRID*               7490               02.0000000000E+01-6.172819393E+01+
*       -1.211626880E+02               0
GRID*               7491               02.0000000000E+01-6.596250292E+01+
*       -1.186568771E+02               0
GRID*               7492               02.0000000000E+01-6.726053963E+01+
*       -1.161820963E+02               0
GRID*               7493               02.0000000000E+01-6.438676662E+01+
*       -1.161517663E+02               0
GRID*               7494               02.0000000000E+01-5.885771584E+01+
*       -1.210726138E+02               0
GRID*               7495               02.0000000000E+01-6.021825182E+01+
*       -1.185364729E+02               0
GRID*               7496               02.0000000000E+01-5.594883285E+01+
*       -1.209779772E+02               0
GRID*               7497               02.0000000000E+01-5.448129541E+01+
*       -1.183150732E+02               0
GRID*               7498               02.0000000000E+01-2.985606986E+01+
*       -5.916744746E+01               0
GRID*               7499               02.0000000000E+01-2.870154735E+01+
*       -6.189533268E+01               0
GRID*               7500               02.0000000000E+01-3.145881565E+01+
*       -6.172151621E+01               0
GRID*               7501               02.0000000000E+01-3.087553706E+01+
*       -5.673263701E+01               0
GRID*               7502               02.0000000000E+01-2.730092260E+01+
*       -6.434431322E+01               0
GRID*               7503               02.0000000000E+01-2.878858641E+01+
*       -6.708704935E+01               0
GRID*               7504               02.0000000000E+01-3.373498320E+01+
*       -6.436932332E+01               0
GRID*               7505               02.0000000000E+01-3.197266871E+01+
*       -6.731027337E+01               0
GRID*               7506               02.0000000000E+01-3.540335878E+01+
*       -6.723019526E+01               0
GRID*               7507               02.0000000000E+01-3.488950571E+01+
*       -6.164143809E+01               0
GRID*               7508               02.0000000000E+01-3.045696198E+01+
*       -6.994792129E+01               0
GRID*               7509               02.0000000000E+01-3.196306500E+01+
*       -7.277010566E+01               0
GRID*               7510               02.0000000000E+01-6.157109774E+01+
*       -1.160637156E+02               0
GRID*               7511               02.0000000000E+01-5.870061964E+01+
*       -1.159736414E+02               0
GRID*               7512               02.0000000000E+01-6.286913444E+01+
*       -1.135889348E+02               0
GRID*               7513               02.0000000000E+01-6.418720605E+01+
*       -1.111717738E+02               0
GRID*               7514               02.0000000000E+01-6.137153717E+01+
*       -1.110837232E+02               0
GRID*               7515               02.0000000000E+01-5.587343278E+01+
*       -1.158461186E+02               0
GRID*               7516               02.0000000000E+01-5.722627870E+01+
*       -1.133733613E+02               0
GRID*               7517               02.0000000000E+01-5.300695447E+01+
*       -1.157147931E+02               0
GRID*               7518               02.0000000000E+01-5.157438749E+01+
*       -1.130689841E+02               0
GRID*               7519               02.0000000000E+01-3.696149585E+01+
*       -7.058519544E+01               0
GRID*               7520               02.0000000000E+01-3.515233962E+01+
*       -7.313832553E+01               0
GRID*               7521               02.0000000000E+01-3.847279118E+01+
*       -7.355237566E+01               0
GRID*               7522               02.0000000000E+01-3.872381034E+01+
*       -6.764424539E+01               0
GRID*               7523               02.0000000000E+01-3.347436033E+01+
*       -7.573728588E+01               0
GRID*               7524               02.0000000000E+01-3.492459705E+01+
*       -7.857090473E+01               0
GRID*               7525               02.0000000000E+01-4.737526790E+01+
*       -1.053882503E+02               0
GRID*               7526               02.0000000000E+01-4.875215720E+01+
*       -1.078970461E+02               0
GRID*               7527               02.0000000000E+01-5.015063870E+01+
*       -1.056133259E+02               0
GRID*               7528               02.0000000000E+01-4.605836076E+01+
*       -1.028278597E+02               0
GRID*               7529               02.0000000000E+01-5.013860557E+01+
*       -1.105071257E+02               0
GRID*               7530               02.0000000000E+01-5.296330992E+01+
*       -1.106839801E+02               0
GRID*               7531               02.0000000000E+01-5.857296929E+01+
*       -1.109704824E+02               0
GRID*               7532               02.0000000000E+01-5.989104091E+01+
*       -1.085533215E+02               0
GRID*               7533               02.0000000000E+01-5.574578244E+01+
*       -1.108429596E+02               0
GRID*               7534               02.0000000000E+01-5.431000051E+01+
*       -1.082811012E+02               0
GRID*               7535               02.0000000000E+01-5.285683745E+01+
*       -1.057799217E+02               0
GRID*               7536               02.0000000000E+01-5.147994815E+01+
*       -1.032711258E+02               0
GRID*               7537               02.0000000000E+01-5.563930997E+01+
*       -1.059389012E+02               0
GRID*               7538               02.0000000000E+01-5.839616969E+01+
*       -1.060520775E+02               0
GRID*               7539               02.0000000000E+01-6.119473757E+01+
*       -1.061653183E+02               0
GRID*               7540               02.0000000000E+01-5.694300662E+01+
*       -1.035508980E+02               0
GRID*               7541               02.0000000000E+01-3.633179182E+01+
*       -8.148292962E+01               0
GRID*               7542               02.0000000000E+01-3.770904423E+01+
*       -8.428794288E+01               0
GRID*               7543               02.0000000000E+01-3.990622950E+01+
*       -7.659771496E+01               0
GRID*               7544               02.0000000000E+01-4.171538573E+01+
*       -7.404458488E+01               0
GRID*               7545               02.0000000000E+01-3.807082972E+01+
*       -7.901753064E+01               0
GRID*               7546               02.0000000000E+01-4.131342427E+01+
*       -7.950973986E+01               0
GRID*               7547               02.0000000000E+01-4.356735078E+01+
*       -9.787422696E+01               0
GRID*               7548               02.0000000000E+01-4.523720596E+01+
*       -9.581739954E+01               0
GRID*               7549               02.0000000000E+01-4.256147463E+01+
*       -9.537927331E+01               0
GRID*               7550               02.0000000000E+01-4.479302711E+01+
*       -1.004317712E+02               0
GRID*               7551               02.0000000000E+01-4.750841575E+01+
*       -1.007084416E+02               0
GRID*               7552               02.0000000000E+01-3.903164677E+01+
*       -8.718838001E+01               0
GRID*               7553               02.0000000000E+01-4.080062703E+01+
*       -8.482999267E+01               0
GRID*               7554               02.0000000000E+01-4.031044225E+01+
*       -8.993796938E+01               0
GRID*               7555               02.0000000000E+01-4.136449237E+01+
*       -9.273397743E+01               0
GRID*               7556               02.0000000000E+01-4.317727969E+01+
*       -9.052643785E+01               0
GRID*               7557               02.0000000000E+01-5.006751682E+01+
*       -1.009318000E+02               0
GRID*               7558               02.0000000000E+01-4.880218317E+01+
*       -9.853571157E+01               0
GRID*               7559               02.0000000000E+01-5.277371557E+01+
*       -1.010983958E+02               0
GRID*               7560               02.0000000000E+01-5.543427515E+01+
*       -1.011196658E+02               0
GRID*               7561               02.0000000000E+01-5.819113488E+01+
*       -1.012328422E+02               0
GRID*               7562               02.0000000000E+01-5.402184382E+01+
*       -9.878034004E+01               0
GRID*               7563               02.0000000000E+01-4.754896668E+01+
*       -9.658157021E+01               0
GRID*               7564               02.0000000000E+01-4.654309053E+01+
*       -9.408661656E+01               0
GRID*               7565               02.0000000000E+01-5.010806775E+01+
*       -9.680492860E+01               0
GRID*               7566               02.0000000000E+01-5.243151219E+01+
*       -9.644939330E+01               0
GRID*               7567               02.0000000000E+01-5.509207178E+01+
*       -9.647066338E+01               0
GRID*               7568               02.0000000000E+01-5.117829570E+01+
*       -9.449525194E+01               0
GRID*               7569               02.0000000000E+01-4.265360804E+01+
*       -8.245012517E+01               0
GRID*               7570               02.0000000000E+01-4.448900782E+01+
*       -8.003030949E+01               0
GRID*               7571               02.0000000000E+01-4.397621058E+01+
*       -8.535056230E+01               0
GRID*               7572               02.0000000000E+01-4.552113133E+01+
*       -8.852762097E+01               0
GRID*               7573               02.0000000000E+01-4.737411234E+01+
*       -8.614775347E+01               0
GRID*               7574               02.0000000000E+01-4.657518145E+01+
*       -9.132362901E+01               0
GRID*               7575               02.0000000000E+01-4.888694217E+01+
*       -9.208779969E+01               0
GRID*               7576               02.0000000000E+01-5.121038662E+01+
*       -9.173226439E+01               0
GRID*               7577               02.0000000000E+01-8.957499857E+01+
*       -1.472403496E+02               0
GRID*               7578               02.0000000000E+01-9.260530160E+01+
*       -1.472403496E+02               0
GRID*               7579               02.0000000000E+01-8.797289947E+01+
*       -1.446130328E+02               0
GRID*               7580               02.0000000000E+01-8.922225514E+01+
*       -1.419948803E+02               0
GRID*               7581               02.0000000000E+01-8.592394535E+01+
*       -1.421272140E+02               0
GRID*               7582               02.0000000000E+01-8.427786308E+01+
*       -1.396222562E+02               0
GRID*               7583               02.0000000000E+01-8.552658785E+01+
*       -1.372638244E+02               0
GRID*               7584               02.0000000000E+01-8.263114991E+01+
*       -1.373770191E+02               0
GRID*               7585               02.0000000000E+01-8.112948877E+01+
*       -1.348899580E+02               0
GRID*               7586               02.0000000000E+01-8.263367171E+01+
*       -1.326414283E+02               0
GRID*               7587               02.0000000000E+01-7.988328581E+01+
*       -1.325127989E+02               0
GRID*               7588               02.0000000000E+01-1.218358156E+01+
*       -2.520008633E+01               0
GRID*               7589               02.0000000000E+01-1.346054377E+01+
*       -2.276976617E+01               0
GRID*               7590               02.0000000000E+01-1.069706301E+01+
*       -2.293639808E+01               0
GRID*               7591               02.0000000000E+01-7.844877406E+01+
*       -1.298484453E+02               0
GRID*               7592               02.0000000000E+01-8.027971724E+01+
*       -1.270968632E+02               0
GRID*               7593               02.0000000000E+01-7.734102256E+01+
*       -1.266810393E+02               0
GRID*               7594               02.0000000000E+01-7.571505892E+01+
*       -1.239169466E+02               0
GRID*               7595               02.0000000000E+01-7.689533619E+01+
*       -1.212072591E+02               0
GRID*               7596               02.0000000000E+01-7.343842936E+01+
*       -1.211947484E+02               0
GRID*               7597               02.0000000000E+01-7.172749128E+01+
*       -1.185861340E+02               0
GRID*               7598               02.0000000000E+01-7.291727312E+01+
*       -1.161229416E+02               0
GRID*               7599               02.0000000000E+01-7.002605777E+01+
*       -1.162240147E+02               0
GRID*               7600               02.0000000000E+01-6.845032146E+01+
*       -1.137189038E+02               0
GRID*               7601               02.0000000000E+01-6.974402535E+01+
*       -1.113673125E+02               0
GRID*               7602               02.0000000000E+01-6.697850720E+01+
*       -1.113253941E+02               0
GRID*               7603               02.0000000000E+01-6.548090994E+01+
*       -1.088201825E+02               0
GRID*               7604               02.0000000000E+01-6.683343405E+01+
*       -1.064471114E+02               0
GRID*               7605               02.0000000000E+01-6.404213290E+01+
*       -1.062934911E+02               0
GRID*               7606               02.0000000000E+01-1.365454767E+01+
*       -2.773111061E+01               0
GRID*               7607               02.0000000000E+01-1.534513223E+01+
*       -3.033076911E+01               0
GRID*               7608               02.0000000000E+01-1.663764687E+01+
*       -2.763311293E+01               0
GRID*               7609               02.0000000000E+01-6.254726168E+01+
*       -1.037922472E+02               0
GRID*               7610               02.0000000000E+01-6.382547565E+01+
*       -1.014434594E+02               0
GRID*               7611               02.0000000000E+01-6.097808032E+01+
*       -1.013152865E+02               0
GRID*               7612               02.0000000000E+01-5.946934885E+01+
*       -9.888405441E+01               0
GRID*               7613               02.0000000000E+01-6.073697037E+01+
*       -9.653254669E+01               0
GRID*               7614               02.0000000000E+01-5.795002493E+01+
*       -9.645010239E+01               0
GRID*               7615               02.0000000000E+01-1.686329926E+01+
*       -3.296277184E+01               0
GRID*               7616               02.0000000000E+01-1.828962059E+01+
*       -3.574366581E+01               0
GRID*               7617               02.0000000000E+01-1.975455276E+01+
*       -3.301366540E+01               0
GRID*               7618               02.0000000000E+01-5.635969330E+01+
*       -9.411915565E+01               0
GRID*               7619               02.0000000000E+01-5.752635971E+01+
*       -9.151300549E+01               0
GRID*               7620               02.0000000000E+01-5.466840656E+01+
*       -9.153356648E+01               0
GRID*               7621               02.0000000000E+01-1.981559889E+01+
*       -3.835394258E+01               0
GRID*               7622               02.0000000000E+01-2.119348176E+01+
*       -4.079846304E+01               0
GRID*               7623               02.0000000000E+01-2.255875696E+01+
*       -3.823907982E+01               0
GRID*               7624               02.0000000000E+01-5.237705304E+01+
*       -8.912611423E+01               0
GRID*               7625               02.0000000000E+01-5.402143879E+01+
*       -8.626890966E+01               0
GRID*               7626               02.0000000000E+01-5.056341884E+01+
*       -8.646760757E+01               0
GRID*               7627               02.0000000000E+01-2.286667471E+01+
*       -4.330748172E+01               0
GRID*               7628               02.0000000000E+01-2.452026662E+01+
*       -4.550100458E+01               0
GRID*               7629               02.0000000000E+01-2.559023173E+01+
*       -4.287712314E+01               0
GRID*               7630               02.0000000000E+01-4.901849809E+01+
*       -8.329054890E+01               0
GRID*               7631               02.0000000000E+01-5.079234846E+01+
*       -8.094795937E+01               0
GRID*               7632               02.0000000000E+01-4.760304196E+01+
*       -8.062810527E+01               0
GRID*               7633               02.0000000000E+01-2.640842516E+01+
*       -4.772353916E+01               0
GRID*               7634               02.0000000000E+01-2.817693884E+01+
*       -4.986620074E+01               0
GRID*               7635               02.0000000000E+01-2.901233731E+01+
*       -4.721330757E+01               0
GRID*               7636               02.0000000000E+01-4.626285819E+01+
*       -7.768771996E+01               0
GRID*               7637               02.0000000000E+01-4.847005736E+01+
*       -7.514239913E+01               0
GRID*               7638               02.0000000000E+01-4.535602322E+01+
*       -7.454460335E+01               0
GRID*               7639               02.0000000000E+01-2.995929348E+01+
*       -5.191380609E+01               0
GRID*               7640               02.0000000000E+01-3.175329246E+01+
*       -5.405839712E+01               0
GRID*               7641               02.0000000000E+01-3.257484996E+01+
*       -5.150056017E+01               0
GRID*               7642               02.0000000000E+01-4.392258490E+01+
*       -7.149926405E+01               0
GRID*               7643               02.0000000000E+01-4.574070610E+01+
*       -6.897114424E+01               0
GRID*               7644               02.0000000000E+01-4.210006861E+01+
*       -6.847112577E+01               0
GRID*               7645               02.0000000000E+01-3.349109355E+01+
*       -5.631939109E+01               0
GRID*               7646               02.0000000000E+01-3.537426234E+01+
*       -5.845453963E+01               0
GRID*               7647               02.0000000000E+01-3.625201773E+01+
*       -5.578029974E+01               0
GRID*               7648               02.0000000000E+01-4.054193154E+01+
*       -6.511612558E+01               0
GRID*               7649               02.0000000000E+01-4.286992173E+01+
*       -6.357745686E+01               0
GRID*               7650               02.0000000000E+01-3.949366345E+01+
*       -6.275057649E+01               0
GRID*               7651               02.0000000000E+01-3.765042989E+01+
*       -6.110234675E+01               0
GRID*               7652               02.0000000000E+01-3.997842008E+01+
*       -5.956367803E+01               0
GRID*               7653               02.0000000000E+01-2.136034469E+01+
*       -7.569131293E+00               0
GRID*               7654               02.0000000000E+01-2.204000027E+01+
*       -7.327800501E+00               0
GRID*               7655               02.0000000000E+01-2.058663109E+01+
*       -7.808827227E+00               0
GRID*               7656               02.0000000000E+01-2.296560843E+01+
*       -8.599839666E+00               0
GRID*               7657               02.0000000000E+01-2.359487362E+01+
*       -9.188424247E+00               0
GRID*               7658               02.0000000000E+01-2.391604807E+01+
*       -8.291709904E+00               0
GRID*               7659               02.0000000000E+01-2.242916972E+01+
*       -7.871890908E+00               0
GRID*               7660               02.0000000000E+01-2.210799527E+01+
*       -8.768605251E+00               0
GRID*               7661               02.0000000000E+01-9.735843109E+01+
*       -6.126757186E+01               0
GRID*               7662               02.0000000000E+01-9.735843109E+01+
*       -6.426757186E+01               0
GRID*               7663               02.0000000000E+01-9.476289881E+01+
*       -5.950615284E+01               0
GRID*               7664               02.0000000000E+01-9.213767276E+01+
*       -5.771183916E+01               0
GRID*               7665               02.0000000000E+01-9.209163614E+01+
*       -6.074083003E+01               0
GRID*               7666               02.0000000000E+01-9.740446771E+01+
*       -5.823858098E+01               0
GRID*               7667               02.0000000000E+01-8.957652319E+01+
*       -5.593174992E+01               0
GRID*               7668               02.0000000000E+01-8.701491046E+01+
*       -5.409337286E+01               0
GRID*               7669               02.0000000000E+01-8.690479737E+01+
*       -5.710813928E+01               0
GRID*               7670               02.0000000000E+01-9.224778585E+01+
*       -5.469707273E+01               0
GRID*               7671               02.0000000000E+01-8.450170263E+01+
*       -5.231362455E+01               0
GRID*               7672               02.0000000000E+01-8.202651197E+01+
*       -5.049103066E+01               0
GRID*               7673               02.0000000000E+01-8.186799398E+01+
*       -5.344716834E+01               0
GRID*               7674               02.0000000000E+01-8.717342845E+01+
*       -5.113723518E+01               0
GRID*               7675               02.0000000000E+01-7.956577873E+01+
*       -4.873333158E+01               0
GRID*               7676               02.0000000000E+01-7.715472583E+01+
*       -4.695896479E+01               0
GRID*               7677               02.0000000000E+01-7.698175043E+01+
*       -4.985020767E+01               0
GRID*               7678               02.0000000000E+01-8.219948737E+01+
*       -4.759978778E+01               0
GRID*               7679               02.0000000000E+01-7.474008098E+01+
*       -4.523104271E+01               0
GRID*               7680               02.0000000000E+01-7.237131173E+01+
*       -4.350814948E+01               0
GRID*               7681               02.0000000000E+01-7.220192828E+01+
*       -4.635294765E+01               0
GRID*               7682               02.0000000000E+01-7.732410928E+01+
*       -4.411416662E+01               0
GRID*               7683               02.0000000000E+01-2.440478693E+01+
*       -9.896424246E+00               0
GRID*               7684               02.0000000000E+01-2.522733386E+01+
*       -1.046920728E+01               0
GRID*               7685               02.0000000000E+01-2.536786018E+01+
*       -9.453077521E+00               0
GRID*               7686               02.0000000000E+01-2.345434730E+01+
*       -1.020455401E+01               0
GRID*               7687               02.0000000000E+01-6.998678455E+01+
*       -4.180409753E+01               0
GRID*               7688               02.0000000000E+01-6.763085320E+01+
*       -4.013176153E+01               0
GRID*               7689               02.0000000000E+01-6.747722768E+01+
*       -4.295771841E+01               0
GRID*               7690               02.0000000000E+01-7.252493725E+01+
*       -4.068219259E+01               0
GRID*               7691               02.0000000000E+01-6.524648128E+01+
*       -3.843302132E+01               0
GRID*               7692               02.0000000000E+01-6.281080948E+01+
*       -3.677842869E+01               0
GRID*               7693               02.0000000000E+01-6.268562453E+01+
*       -3.963078978E+01               0
GRID*               7694               02.0000000000E+01-6.775603815E+01+
*       -3.727940043E+01               0
GRID*               7695               02.0000000000E+01-6.041587051E+01+
*       -3.504843306E+01               0
GRID*               7696               02.0000000000E+01-5.797335960E+01+
*       -3.324671802E+01               0
GRID*               7697               02.0000000000E+01-5.780744182E+01+
*       -3.617448211E+01               0
GRID*               7698               02.0000000000E+01-6.297672726E+01+
*       -3.385066460E+01               0
GRID*               7699               02.0000000000E+01-2.618661141E+01+
*       -1.116942539E+01               0
GRID*               7700               02.0000000000E+01-2.717219985E+01+
*       -1.167294446E+01               0
GRID*               7701               02.0000000000E+01-2.717599555E+01+
*       -1.052937963E+01               0
GRID*               7702               02.0000000000E+01-2.522353816E+01+
*       -1.161277211E+01               0
GRID*               7703               02.0000000000E+01-5.560798817E+01+
*       -3.150589535E+01               0
GRID*               7704               02.0000000000E+01-5.338345812E+01+
*       -2.968591168E+01               0
GRID*               7705               02.0000000000E+01-5.314040086E+01+
*       -3.255278339E+01               0
GRID*               7706               02.0000000000E+01-5.821641686E+01+
*       -3.037984630E+01               0
GRID*               7707               02.0000000000E+01-3.422970854E+01+
*       -1.586754153E+01               0
GRID*               7708               02.0000000000E+01-3.393339640E+01+
*       -1.809973539E+01               0
GRID*               7709               02.0000000000E+01-3.589051062E+01+
*       -1.738025942E+01               0
GRID*               7710               02.0000000000E+01-3.442369994E+01+
*       -1.388840972E+01               0
GRID*               7711               02.0000000000E+01-3.246658572E+01+
*       -1.460788570E+01               0
GRID*               7712               02.0000000000E+01-2.860703567E+01+
*       -1.246830179E+01               0
GRID*               7713               02.0000000000E+01-2.958879320E+01+
*       -1.269040618E+01               0
GRID*               7714               02.0000000000E+01-2.914334153E+01+
*       -1.125500309E+01               0
GRID*               7715               02.0000000000E+01-2.761765152E+01+
*       -1.310834755E+01               0
GRID*               7716               02.0000000000E+01-3.085653223E+01+
*       -1.326622938E+01               0
GRID*               7717               02.0000000000E+01-3.066254083E+01+
*       -1.524536119E+01               0
GRID*               7718               02.0000000000E+01-3.139283809E+01+
*       -1.205293068E+01               0
GRID*               7719               02.0000000000E+01-5.103493951E+01+
*       -2.806038028E+01               0
GRID*               7720               02.0000000000E+01-4.919915655E+01+
*       -2.661291237E+01               0
GRID*               7721               02.0000000000E+01-4.908008784E+01+
*       -2.928533181E+01               0
GRID*               7722               02.0000000000E+01-5.350252683E+01+
*       -2.701349223E+01               0
GRID*               7723               02.0000000000E+01-3.798225979E+01+
*       -1.890077884E+01               0
GRID*               7724               02.0000000000E+01-3.827857193E+01+
*       -1.666858498E+01               0
GRID*               7725               02.0000000000E+01-3.738931209E+01+
*       -2.155974384E+01               0
GRID*               7726               02.0000000000E+01-3.977737340E+01+
*       -2.084806941E+01               0
GRID*               7727               02.0000000000E+01-4.629997959E+01+
*       -2.522029665E+01               0
GRID*               7728               02.0000000000E+01-4.401321301E+01+
*       -2.528373435E+01               0
GRID*               7729               02.0000000000E+01-4.495753831E+01+
*       -2.790130161E+01               0
GRID*               7730               02.0000000000E+01-4.825483126E+01+
*       -2.399534511E+01               0
GRID*               7731               02.0000000000E+01-4.227003999E+01+
*       -2.305488190E+01               0
GRID*               7732               02.0000000000E+01-4.286298770E+01+
*       -2.039591690E+01               0
GRID*               7733               02.0000000000E+01-4.092759871E+01+
*       -2.573588686E+01               0
GRID*               7734               02.0000000000E+01-4.420438655E+01+
*       -6.116960957E+01               0
GRID*               7735               02.0000000000E+01-4.525265464E+01+
*       -6.353515867E+01               0
GRID*               7736               02.0000000000E+01-4.253452479E+01+
*       -5.902254773E+01               0
GRID*               7737               02.0000000000E+01-4.069129123E+01+
*       -5.737431800E+01               0
GRID*               7738               02.0000000000E+01-4.491725770E+01+
*       -5.898024954E+01               0
GRID*               7739               02.0000000000E+01-4.752316226E+01+
*       -5.863362312E+01               0
GRID*               7740               02.0000000000E+01-4.585330050E+01+
*       -5.648656129E+01               0
GRID*               7741               02.0000000000E+01-3.889310782E+01+
*       -5.531592799E+01               0
GRID*               7742               02.0000000000E+01-3.700993903E+01+
*       -5.318077945E+01               0
GRID*               7743               02.0000000000E+01-4.144921253E+01+
*       -5.477479770E+01               0
GRID*               7744               02.0000000000E+01-4.405720087E+01+
*       -5.435100282E+01               0
GRID*               7745               02.0000000000E+01-4.666310542E+01+
*       -5.400437641E+01               0
GRID*               7746               02.0000000000E+01-4.225901745E+01+
*       -5.229261282E+01               0
GRID*               7747               02.0000000000E+01-3.519605009E+01+
*       -5.104972980E+01               0
GRID*               7748               02.0000000000E+01-3.340205111E+01+
*       -4.890513877E+01               0
GRID*               7749               02.0000000000E+01-3.783714017E+01+
*       -5.058535805E+01               0
GRID*               7750               02.0000000000E+01-4.045737869E+01+
*       -5.014857562E+01               0
GRID*               7751               02.0000000000E+01-4.306536703E+01+
*       -4.972478074E+01               0
GRID*               7752               02.0000000000E+01-3.864348975E+01+
*       -4.801752598E+01               0
GRID*               7753               02.0000000000E+01-3.161304032E+01+
*       -4.677465101E+01               0
GRID*               7754               02.0000000000E+01-2.984452665E+01+
*       -4.463198944E+01               0
GRID*               7755               02.0000000000E+01-3.423424045E+01+
*       -4.632382065E+01               0
GRID*               7756               02.0000000000E+01-3.683422041E+01+
*       -4.586099158E+01               0
GRID*               7757               02.0000000000E+01-3.945445893E+01+
*       -4.542420915E+01               0
GRID*               7758               02.0000000000E+01-3.504520963E+01+
*       -4.373050382E+01               0
GRID*               7759               02.0000000000E+01-1.610256431E+01+
*       -1.612426715E+01               0
GRID*               7760               02.0000000000E+01-1.702801862E+01+
*       -1.448982164E+01               0
GRID*               7761               02.0000000000E+01-1.507790745E+01+
*       -1.467884072E+01               0
GRID*               7762               02.0000000000E+01-1.738620174E+01+
*       -1.795400510E+01               0
GRID*               7763               02.0000000000E+01-1.854386278E+01+
*       -1.929830105E+01               0
GRID*               7764               02.0000000000E+01-1.921033651E+01+
*       -1.727954401E+01               0
GRID*               7765               02.0000000000E+01-1.543609057E+01+
*       -1.814302418E+01               0
GRID*               7766               02.0000000000E+01-1.306323918E+01+
*       -1.840968208E+01               0
GRID*               7767               02.0000000000E+01-1.434687661E+01+
*       -2.023942003E+01               0
GRID*               7768               02.0000000000E+01-2.811012343E+01+
*       -4.255950055E+01               0
GRID*               7769               02.0000000000E+01-2.645653152E+01+
*       -4.036597769E+01               0
GRID*               7770               02.0000000000E+01-3.071082644E+01+
*       -4.212084399E+01               0
GRID*               7771               02.0000000000E+01-3.323662504E+01+
*       -4.160369683E+01               0
GRID*               7772               02.0000000000E+01-3.583660500E+01+
*       -4.114086777E+01               0
GRID*               7773               02.0000000000E+01-3.150222181E+01+
*       -3.953120794E+01               0
GRID*               7774               02.0000000000E+01-2.494340398E+01+
*       -3.859466521E+01               0
GRID*               7775               02.0000000000E+01-2.356552112E+01+
*       -3.615014475E+01               0
GRID*               7776               02.0000000000E+01-2.746329568E+01+
*       -3.827704262E+01               0
GRID*               7777               02.0000000000E+01-2.964374465E+01+
*       -3.746354649E+01               0
GRID*               7778               02.0000000000E+01-3.216954325E+01+
*       -3.694639932E+01               0
GRID*               7779               02.0000000000E+01-2.813061711E+01+
*       -3.569223401E+01               0
GRID*               7780               02.0000000000E+01-2.560072964E+01+
*       -3.354030066E+01               0
GRID*               7781               02.0000000000E+01-2.778117861E+01+
*       -3.272680453E+01               0
GRID*               7782               02.0000000000E+01-2.321608261E+01+
*       -3.318471527E+01               0
GRID*               7783               02.0000000000E+01-2.178976129E+01+
*       -3.040382131E+01               0
GRID*               7784               02.0000000000E+01-1.971550350E+01+
*       -2.703446886E+01               0
GRID*               7785               02.0000000000E+01-1.802491894E+01+
*       -2.443481036E+01               0
GRID*               7786               02.0000000000E+01-2.317703335E+01+
*       -2.720551874E+01               0
GRID*               7787               02.0000000000E+01-1.583339516E+01+
*       -2.250310828E+01               0
GRID*               7788               02.0000000000E+01-1.891125178E+01+
*       -2.190446421E+01               0
GRID*               7789               02.0000000000E+01-2.073538656E+01+
*       -2.123000313E+01               0
GRID*               7790               02.0000000000E+01-4.750901465E+01+
*       -5.146532520E+01               0
GRID*               7791               02.0000000000E+01-4.930511428E+01+
*       -5.360088367E+01               0
GRID*               7792               02.0000000000E+01-4.837162050E+01+
*       -4.891492522E+01               0
GRID*               7793               02.0000000000E+01-5.102726195E+01+
*       -4.858773835E+01               0
GRID*               7794               02.0000000000E+01-4.924785894E+01+
*       -4.644083112E+01               0
GRID*               7795               02.0000000000E+01-4.572961164E+01+
*       -4.931841796E+01               0
GRID*               7796               02.0000000000E+01-4.392797288E+01+
*       -4.717438076E+01               0
GRID*               7797               02.0000000000E+01-5.015840447E+01+
*       -4.383976390E+01               0
GRID*               7798               02.0000000000E+01-5.327846966E+01+
*       -4.346733094E+01               0
GRID*               7799               02.0000000000E+01-5.153337374E+01+
*       -4.119345059E+01               0
GRID*               7800               02.0000000000E+01-4.211253753E+01+
*       -4.499256622E+01               0
GRID*               7801               02.0000000000E+01-4.030326820E+01+
*       -4.283603183E+01               0
GRID*               7802               02.0000000000E+01-4.477678214E+01+
*       -4.458620344E+01               0
GRID*               7803               02.0000000000E+01-4.750276302E+01+
*       -4.416695076E+01               0
GRID*               7804               02.0000000000E+01-4.568732768E+01+
*       -4.198513622E+01               0
GRID*               7805               02.0000000000E+01-5.230753898E+01+
*       -3.845786158E+01               0
GRID*               7806               02.0000000000E+01-4.918747379E+01+
*       -3.883029453E+01               0
GRID*               7807               02.0000000000E+01-5.266328497E+01+
*       -3.523373629E+01               0
GRID*               7808               02.0000000000E+01-5.043875491E+01+
*       -3.341375262E+01               0
GRID*               7809               02.0000000000E+01-5.500918492E+01+
*       -3.759689235E+01               0
GRID*               7810               02.0000000000E+01-4.650304424E+01+
*       -3.937764373E+01               0
GRID*               7811               02.0000000000E+01-4.377706337E+01+
*       -3.979689641E+01               0
GRID*               7812               02.0000000000E+01-4.727720948E+01+
*       -3.664205472E+01               0
GRID*               7813               02.0000000000E+01-3.847120488E+01+
*       -4.068234727E+01               0
GRID*               7814               02.0000000000E+01-3.666262029E+01+
*       -3.855554028E+01               0
GRID*               7815               02.0000000000E+01-4.112928349E+01+
*       -4.025070434E+01               0
GRID*               7816               02.0000000000E+01-4.194500005E+01+
*       -3.764321185E+01               0
GRID*               7817               02.0000000000E+01-2.114190755E+01+
*       -1.689198459E+01               0
GRID*               7818               02.0000000000E+01-1.998424651E+01+
*       -1.554768864E+01               0
GRID*               7819               02.0000000000E+01-2.231658060E+01+
*       -1.878952502E+01               0
GRID*               7820               02.0000000000E+01-2.268396960E+01+
*       -2.139568818E+01               0
GRID*               7821               02.0000000000E+01-2.309049060E+01+
*       -1.705766965E+01               0
GRID*               7822               02.0000000000E+01-2.496260052E+01+
*       -1.707873143E+01               0
GRID*               7823               02.0000000000E+01-2.378792747E+01+
*       -1.518119101E+01               0
GRID*               7824               02.0000000000E+01-1.862140043E+01+
*       -1.429193896E+01               0
GRID*               7825               02.0000000000E+01-2.055297147E+01+
*       -1.390437954E+01               0
GRID*               7826               02.0000000000E+01-1.759674357E+01+
*       -1.284651253E+01               0
GRID*               7827               02.0000000000E+01-1.821416270E+01+
*       -1.153318478E+01               0
GRID*               7828               02.0000000000E+01-1.662078089E+01+
*       -1.173106746E+01               0
GRID*               7829               02.0000000000E+01-2.196869093E+01+
*       -1.347164361E+01               0
GRID*               7830               02.0000000000E+01-2.060584484E+01+
*       -1.221589392E+01               0
GRID*               7831               02.0000000000E+01-2.297637782E+01+
*       -1.408422681E+01               0
GRID*               7832               02.0000000000E+01-2.484848774E+01+
*       -1.410528860E+01               0
GRID*               7833               02.0000000000E+01-2.302925120E+01+
*       -1.239574120E+01               0
GRID*               7834               02.0000000000E+01-2.510987690E+01+
*       -1.266065731E+01               0
GRID*               7835               02.0000000000E+01-2.592142655E+01+
*       -1.375762151E+01               0
GRID*               7836               02.0000000000E+01-2.415059936E+01+
*       -1.196043920E+01               0
GRID*               7837               02.0000000000E+01-2.314291246E+01+
*       -1.134785600E+01               0
GRID*               7838               02.0000000000E+01-1.960101776E+01+
*       -1.118122778E+01               0
GRID*               7839               02.0000000000E+01-2.101673722E+01+
*       -1.074849185E+01               0
GRID*               7840               02.0000000000E+01-1.862505507E+01+
*       -1.006578271E+01               0
GRID*               7841               02.0000000000E+01-1.889605655E+01+
*       -8.884782135E+00               0
GRID*               7842               02.0000000000E+01-1.750920149E+01+
*       -9.236739138E+00               0
GRID*               7843               02.0000000000E+01-2.233299914E+01+
*       -1.063985600E+01               0
GRID*               7844               02.0000000000E+01-1.980680788E+01+
*       -8.645411836E+00               0
GRID*               7845               02.0000000000E+01-2.079173335E+01+
*       -8.877241101E+00               0
GRID*               7846               02.0000000000E+01-2.132817206E+01+
*       -9.605189860E+00               0
GRID*               7847               02.0000000000E+01-2.460230101E+01+
*       -2.370089038E+01               0
GRID*               7848               02.0000000000E+01-2.618349505E+01+
*       -2.126041227E+01               0
GRID*               7849               02.0000000000E+01-2.667655880E+01+
*       -2.707024282E+01               0
GRID*               7850               02.0000000000E+01-2.853887421E+01+
*       -2.992256263E+01               0
GRID*               7851               02.0000000000E+01-2.996414187E+01+
*       -2.641793427E+01               0
GRID*               7852               02.0000000000E+01-3.483048880E+01+
*       -3.640666814E+01               0
GRID*               7853               02.0000000000E+01-3.297201163E+01+
*       -3.433900669E+01               0
GRID*               7854               02.0000000000E+01-3.746508868E+01+
*       -3.594814765E+01               0
GRID*               7855               02.0000000000E+01-3.106876168E+01+
*       -3.207449598E+01               0
GRID*               7856               02.0000000000E+01-3.372970723E+01+
*       -3.153476480E+01               0
GRID*               7857               02.0000000000E+01-4.011996489E+01+
*       -3.552900096E+01               0
GRID*               7858               02.0000000000E+01-4.276774477E+01+
*       -3.507519304E+01               0
GRID*               7859               02.0000000000E+01-3.828783340E+01+
*       -3.338012883E+01               0
GRID*               7860               02.0000000000E+01-3.916265027E+01+
*       -3.077938767E+01               0
GRID*               7861               02.0000000000E+01-3.650777406E+01+
*       -3.119853435E+01               0
GRID*               7862               02.0000000000E+01-4.002668133E+01+
*       -2.828126625E+01               0
GRID*               7863               02.0000000000E+01-3.828350831E+01+
*       -2.605241380E+01               0
GRID*               7864               02.0000000000E+01-4.180674067E+01+
*       -3.046286073E+01               0
GRID*               7865               02.0000000000E+01-4.800729903E+01+
*       -3.410890671E+01               0
GRID*               7866               02.0000000000E+01-4.532286948E+01+
*       -3.465625591E+01               0
GRID*               7867               02.0000000000E+01-4.848441492E+01+
*       -3.142795380E+01               0
GRID*               7868               02.0000000000E+01-4.664863196E+01+
*       -2.998048590E+01               0
GRID*               7869               02.0000000000E+01-4.349783432E+01+
*       -3.254204502E+01               0
GRID*               7870               02.0000000000E+01-4.436186538E+01+
*       -3.004392360E+01               0
GRID*               7871               02.0000000000E+01-3.460452411E+01+
*       -2.893402363E+01               0
GRID*               7872               02.0000000000E+01-2.735626236E+01+
*       -1.455297883E+01               0
GRID*               7873               02.0000000000E+01-2.709100326E+01+
*       -1.659760748E+01               0
GRID*               7874               02.0000000000E+01-2.639356639E+01+
*       -1.847408611E+01               0
GRID*               7875               02.0000000000E+01-2.878722823E+01+
*       -1.594833351E+01               0
GRID*               7876               02.0000000000E+01-3.039728172E+01+
*       -1.728998983E+01               0
GRID*               7877               02.0000000000E+01-3.200684433E+01+
*       -1.843926975E+01               0
GRID*               7878               02.0000000000E+01-3.013153173E+01+
*       -1.914224208E+01               0
GRID*               7879               02.0000000000E+01-3.366764641E+01+
*       -1.995198764E+01               0
GRID*               7880               02.0000000000E+01-3.480330168E+01+
*       -2.187172920E+01               0
GRID*               7881               02.0000000000E+01-3.287674961E+01+
*       -2.221126356E+01               0
GRID*               7882               02.0000000000E+01-3.659841529E+01+
*       -2.381901977E+01               0
GRID*               7883               02.0000000000E+01-3.569749791E+01+
*       -2.636439916E+01               0
GRID*               7884               02.0000000000E+01-3.291943108E+01+
*       -2.670062961E+01               0
GRID*               7885               02.0000000000E+01-2.831189779E+01+
*       -2.077928831E+01               0
GRID*               7886               02.0000000000E+01-2.992146040E+01+
*       -2.192856823E+01               0
GRID*               7887               02.0000000000E+01-3.105711567E+01+
*       -2.384830980E+01               0
GRID*               7888               02.0000000000E+01-7.433065037E+01+
*       -5.091835095E+01               0
GRID*               7889               02.0000000000E+01-7.674170327E+01+
*       -5.269271774E+01               0
GRID*               7890               02.0000000000E+01-7.198134646E+01+
*       -4.913624372E+01               0
GRID*               7891               02.0000000000E+01-6.961257721E+01+
*       -4.741335049E+01               0
GRID*               7892               02.0000000000E+01-7.174129930E+01+
*       -5.197875379E+01               0
GRID*               7893               02.0000000000E+01-6.910297143E+01+
*       -5.297962473E+01               0
GRID*               7894               02.0000000000E+01-7.145227534E+01+
*       -5.476173196E+01               0
GRID*               7895               02.0000000000E+01-6.654801540E+01+
*       -5.397073075E+01               0
GRID*               7896               02.0000000000E+01-6.389629632E+01+
*       -5.490415084E+01               0
GRID*               7897               02.0000000000E+01-6.616222840E+01+
*       -5.669602299E+01               0
GRID*               7898               02.0000000000E+01-6.683703935E+01+
*       -5.118775258E+01               0
GRID*               7899               02.0000000000E+01-6.732620412E+01+
*       -4.571589596E+01               0
GRID*               7900               02.0000000000E+01-6.497027277E+01+
*       -4.404355995E+01               0
GRID*               7901               02.0000000000E+01-6.710562230E+01+
*       -4.849919203E+01               0
GRID*               7902               02.0000000000E+01-6.455066626E+01+
*       -4.949029805E+01               0
GRID*               7903               02.0000000000E+01-5.035574713E+01+
*       -5.834908166E+01               0
GRID*               7904               02.0000000000E+01-4.941970433E+01+
*       -6.084276991E+01               0
GRID*               7905               02.0000000000E+01-5.117113337E+01+
*       -5.566139397E+01               0
GRID*               7906               02.0000000000E+01-5.201704260E+01+
*       -5.312234276E+01               0
GRID*               7907               02.0000000000E+01-5.306767544E+01+
*       -5.787054075E+01               0
GRID*               7908               02.0000000000E+01-5.514022666E+01+
*       -5.995165326E+01               0
GRID*               7909               02.0000000000E+01-5.595561290E+01+
*       -5.726396557E+01               0
GRID*               7910               02.0000000000E+01-6.133503752E+01+
*       -5.574987606E+01               0
GRID*               7911               02.0000000000E+01-6.172082451E+01+
*       -5.302458382E+01               0
GRID*               7912               02.0000000000E+01-5.859386491E+01+
*       -5.660769356E+01               0
GRID*               7913               02.0000000000E+01-5.652131369E+01+
*       -5.452658105E+01               0
GRID*               7914               02.0000000000E+01-6.076933672E+01+
*       -5.848726058E+01               0
GRID*               7915               02.0000000000E+01-6.215214155E+01+
*       -5.047684575E+01               0
GRID*               7916               02.0000000000E+01-5.959088274E+01+
*       -5.132257097E+01               0
GRID*               7917               02.0000000000E+01-6.242072449E+01+
*       -4.778828519E+01               0
GRID*               7918               02.0000000000E+01-6.254080440E+01+
*       -4.522078945E+01               0
GRID*               7919               02.0000000000E+01-6.014227968E+01+
*       -4.620733715E+01               0
GRID*               7920               02.0000000000E+01-6.269182796E+01+
*       -4.246261190E+01               0
GRID*               7921               02.0000000000E+01-6.025615616E+01+
*       -4.080801928E+01               0
GRID*               7922               02.0000000000E+01-5.745169583E+01+
*       -3.939860739E+01               0
GRID*               7923               02.0000000000E+01-5.554852625E+01+
*       -4.340312349E+01               0
GRID*               7924               02.0000000000E+01-5.417355698E+01+
*       -4.604943680E+01               0
GRID*               7925               02.0000000000E+01-5.745789925E+01+
*       -4.223042952E+01               0
GRID*               7926               02.0000000000E+01-5.835298658E+01+
*       -4.481253537E+01               0
GRID*               7927               02.0000000000E+01-5.270744500E+01+
*       -5.060835618E+01               0
GRID*               7928               02.0000000000E+01-5.457346408E+01+
*       -5.266886648E+01               0
GRID*               7929               02.0000000000E+01-5.358368344E+01+
*       -4.813426208E+01               0
GRID*               7930               02.0000000000E+01-5.585374003E+01+
*       -4.807005463E+01               0
GRID*               7931               02.0000000000E+01-5.823290667E+01+
*       -4.738003112E+01               0
GRID*               7932               02.0000000000E+01-5.764303313E+01+
*       -4.946485640E+01               0
GRID*               7933               02.0000000000E+01-5.721171609E+01+
*       -5.201259447E+01               0
GRID*               7934               02.0000000000E+01-7.376649930E+01+
*       -5.660407237E+01               0
GRID*               7935               02.0000000000E+01-7.112817143E+01+
*       -5.760494331E+01               0
GRID*               7936               02.0000000000E+01-7.648033939E+01+
*       -5.561213915E+01               0
GRID*               7937               02.0000000000E+01-7.913143945E+01+
*       -5.454399587E+01               0
GRID*               7938               02.0000000000E+01-7.615623548E+01+
*       -5.845535050E+01               0
GRID*               7939               02.0000000000E+01-7.579416785E+01+
*       -6.140511717E+01               0
GRID*               7940               02.0000000000E+01-7.850800794E+01+
*       -6.041318395E+01               0
GRID*               7941               02.0000000000E+01-8.160663011E+01+
*       -5.636658975E+01               0
GRID*               7942               02.0000000000E+01-8.137884856E+01+
*       -5.941419575E+01               0
GRID*               7943               02.0000000000E+01-8.411540310E+01+
*       -5.831736822E+01               0
GRID*               7944               02.0000000000E+01-8.101678093E+01+
*       -6.236396242E+01               0
GRID*               7945               02.0000000000E+01-8.067618140E+01+
*       -6.575517242E+01               0
GRID*               7946               02.0000000000E+01-8.354702202E+01+
*       -6.475618422E+01               0
GRID*               7947               02.0000000000E+01-8.667701583E+01+
*       -6.015574528E+01               0
GRID*               7948               02.0000000000E+01-8.935826673E+01+
*       -6.205757537E+01               0
GRID*               7949               02.0000000000E+01-9.198349278E+01+
*       -6.385188905E+01               0
GRID*               7950               02.0000000000E+01-8.656887246E+01+
*       -6.326680430E+01               0
GRID*               7951               02.0000000000E+01-8.622827293E+01+
*       -6.665801431E+01               0
GRID*               7952               02.0000000000E+01-9.739021054E+01+
*       -7.334269333E+01               0
GRID*               7953               02.0000000000E+01-9.739021054E+01+
*       -7.634269333E+01               0
GRID*               7954               02.0000000000E+01-9.734853225E+01+
*       -7.032004311E+01               0
GRID*               7955               02.0000000000E+01-9.734853225E+01+
*       -6.732004311E+01               0
GRID*               7956               02.0000000000E+01-9.473874279E+01+
*       -7.166273644E+01               0
GRID*               7957               02.0000000000E+01-9.205254314E+01+
*       -7.003495149E+01               0
GRID*               7958               02.0000000000E+01-9.209422144E+01+
*       -7.305760171E+01               0
GRID*               7959               02.0000000000E+01-8.932907258E+01+
*       -6.829922558E+01               0
GRID*               7960               02.0000000000E+01-8.630722214E+01+
*       -6.978860549E+01               0
GRID*               7961               02.0000000000E+01-9.197359393E+01+
*       -6.690436031E+01               0
GRID*               7962               02.0000000000E+01-9.470696334E+01+
*       -6.558761497E+01               0
GRID*               7963               02.0000000000E+01-9.741626305E+01+
*       -7.931963079E+01               0
GRID*               7964               02.0000000000E+01-9.741626305E+01+
*       -8.231963079E+01               0
GRID*               7965               02.0000000000E+01-6.843335433E+01+
*       -5.854071280E+01               0
GRID*               7966               02.0000000000E+01-6.578163526E+01+
*       -5.947413290E+01               0
GRID*               7967               02.0000000000E+01-9.480647360E+01+
*       -7.766232411E+01               0
GRID*               7968               02.0000000000E+01-9.222125519E+01+
*       -7.604052920E+01               0
GRID*               7969               02.0000000000E+01-9.224730770E+01+
*       -7.901746666E+01               0
GRID*               7970               02.0000000000E+01-7.074757828E+01+
*       -6.038305321E+01               0
GRID*               7971               02.0000000000E+01-7.301038999E+01+
*       -6.223913638E+01               0
GRID*               7972               02.0000000000E+01-7.031557288E+01+
*       -6.317490587E+01               0
GRID*               7973               02.0000000000E+01-8.953505555E+01+
*       -7.441274425E+01               0
GRID*               7974               02.0000000000E+01-8.696114946E+01+
*       -7.293970216E+01               0
GRID*               7975               02.0000000000E+01-8.708818321E+01+
*       -7.592262965E+01               0
GRID*               7976               02.0000000000E+01-7.536216245E+01+
*       -6.419696983E+01               0
GRID*               7977               02.0000000000E+01-7.472363759E+01+
*       -6.696146630E+01               0
GRID*               7978               02.0000000000E+01-7.750741546E+01+
*       -6.612744709E+01               0
GRID*               7979               02.0000000000E+01-8.386034981E+01+
*       -7.129849089E+01               0
GRID*               7980               02.0000000000E+01-8.162704328E+01+
*       -7.033296029E+01               0
GRID*               7981               02.0000000000E+01-8.228097060E+01+
*       -7.348405695E+01               0
GRID*               7982               02.0000000000E+01-8.003765654E+01+
*       -6.851966889E+01               0
GRID*               7983               02.0000000000E+01-7.845827734E+01+
*       -7.070523496E+01               0
GRID*               7984               02.0000000000E+01-8.224975507E+01+
*       -7.572380422E+01               0
GRID*               7985               02.0000000000E+01-8.001644855E+01+
*       -7.475827362E+01               0
GRID*               7986               02.0000000000E+01-8.460714839E+01+
*       -7.721638931E+01               0
GRID*               7987               02.0000000000E+01-8.718105447E+01+
*       -7.868943141E+01               0
GRID*               7988               02.0000000000E+01-8.234262633E+01+
*       -7.849060598E+01               0
GRID*               7989               02.0000000000E+01-8.968514840E+01+
*       -8.030007283E+01               0
GRID*               7990               02.0000000000E+01-9.227036680E+01+
*       -8.192186774E+01               0
GRID*               7991               02.0000000000E+01-8.720411357E+01+
*       -8.159383249E+01               0
GRID*               7992               02.0000000000E+01-9.741212672E+01+
*       -8.528346025E+01               0
GRID*               7993               02.0000000000E+01-9.741212672E+01+
*       -8.828346025E+01               0
GRID*               7994               02.0000000000E+01-9.482838978E+01+
*       -8.360309103E+01               0
GRID*               7995               02.0000000000E+01-9.226623047E+01+
*       -8.488569720E+01               0
GRID*               7996               02.0000000000E+01-7.790131146E+01+
*       -7.319278766E+01               0
GRID*               7997               02.0000000000E+01-7.787009593E+01+
*       -7.543253493E+01               0
GRID*               7998               02.0000000000E+01-7.631192472E+01+
*       -7.137949627E+01               0
GRID*               7999               02.0000000000E+01-7.425001859E+01+
*       -6.962029328E+01               0
GRID*               8000               02.0000000000E+01-7.369305271E+01+
*       -7.210784598E+01               0
GRID*               8001               02.0000000000E+01-7.210476559E+01+
*       -6.768981601E+01               0
GRID*               8002               02.0000000000E+01-6.992451740E+01+
*       -6.590435250E+01               0
GRID*               8003               02.0000000000E+01-6.945089840E+01+
*       -6.856317948E+01               0
GRID*               8004               02.0000000000E+01-6.766170570E+01+
*       -6.404826933E+01               0
GRID*               8005               02.0000000000E+01-6.308177314E+01+
*       -6.042910077E+01               0
GRID*               8006               02.0000000000E+01-6.034060053E+01+
*       -6.128691826E+01               0
GRID*               8007               02.0000000000E+01-6.535289906E+01+
*       -6.227379058E+01               0
GRID*               8008               02.0000000000E+01-6.496184358E+01+
*       -6.500323721E+01               0
GRID*               8009               02.0000000000E+01-9.738730659E+01+
*       -9.126555596E+01               0
GRID*               8010               02.0000000000E+01-9.738730659E+01+
*       -9.426555596E+01               0
GRID*               8011               02.0000000000E+01-9.479943331E+01+
*       -8.954901621E+01               0
GRID*               8012               02.0000000000E+01-9.222301792E+01+
*       -8.781403419E+01               0
GRID*               8013               02.0000000000E+01-9.219819779E+01+
*       -9.079612990E+01               0
GRID*               8014               02.0000000000E+01-8.464473409E+01+
*       -8.281346700E+01               0
GRID*               8015               02.0000000000E+01-8.714882802E+01+
*       -8.442410842E+01               0
GRID*               8016               02.0000000000E+01-8.221848370E+01+
*       -8.114609727E+01               0
GRID*               8017               02.0000000000E+01-8.216319815E+01+
*       -8.397637320E+01               0
GRID*               8018               02.0000000000E+01-8.966499495E+01+
*       -8.613281090E+01               0
GRID*               8019               02.0000000000E+01-8.710561547E+01+
*       -8.735244541E+01               0
GRID*               8020               02.0000000000E+01-7.986109039E+01+
*       -7.965351218E+01               0
GRID*               8021               02.0000000000E+01-7.755847805E+01+
*       -7.798323778E+01               0
GRID*               8022               02.0000000000E+01-7.544334096E+01+
*       -7.641775182E+01               0
GRID*               8023               02.0000000000E+01-7.743433542E+01+
*       -8.063872906E+01               0
GRID*               8024               02.0000000000E+01-7.325277556E+01+
*       -7.468419358E+01               0
GRID*               8025               02.0000000000E+01-7.294115768E+01+
*       -7.723489643E+01               0
GRID*               8026               02.0000000000E+01-7.119086944E+01+
*       -7.292499059E+01               0
GRID*               8027               02.0000000000E+01-6.905864473E+01+
*       -7.116794733E+01               0
GRID*               8028               02.0000000000E+01-6.861836757E+01+
*       -7.374429493E+01               0
GRID*               8029               02.0000000000E+01-6.687839654E+01+
*       -6.938248381E+01               0
GRID*               8030               02.0000000000E+01-6.473209059E+01+
*       -6.772372402E+01               0
GRID*               8031               02.0000000000E+01-6.433983692E+01+
*       -7.032849187E+01               0
GRID*               8032               02.0000000000E+01-6.242328396E+01+
*       -6.594924527E+01               0
GRID*               8033               02.0000000000E+01-5.737394274E+01+
*       -6.246794978E+01               0
GRID*               8034               02.0000000000E+01-5.448600528E+01+
*       -6.307452496E+01               0
GRID*               8035               02.0000000000E+01-5.968637915E+01+
*       -6.440978997E+01               0
GRID*               8036               02.0000000000E+01-5.945662616E+01+
*       -6.713027678E+01               0
GRID*               8037               02.0000000000E+01-8.447148563E+01+
*       -8.855098337E+01               0
GRID*               8038               02.0000000000E+01-8.698765256E+01+
*       -9.025968585E+01               0
GRID*               8039               02.0000000000E+01-8.199573901E+01+
*       -8.679507581E+01               0
GRID*               8040               02.0000000000E+01-7.956948862E+01+
*       -8.512770608E+01               0
GRID*               8041               02.0000000000E+01-8.187777610E+01+
*       -8.970231626E+01               0
GRID*               8042               02.0000000000E+01-7.921389357E+01+
*       -9.082319649E+01               0
GRID*               8043               02.0000000000E+01-8.168964019E+01+
*       -9.257910405E+01               0
GRID*               8044               02.0000000000E+01-7.658330462E+01+
*       -9.192530023E+01               0
GRID*               8045               02.0000000000E+01-7.396956286E+01+
*       -9.299575795E+01               0
GRID*               8046               02.0000000000E+01-7.641201591E+01+
*       -9.477044201E+01               0
GRID*               8047               02.0000000000E+01-7.677144053E+01+
*       -8.904851244E+01               0
GRID*               8048               02.0000000000E+01-7.716142288E+01+
*       -8.337237182E+01               0
GRID*               8049               02.0000000000E+01-7.485881054E+01+
*       -8.170209742E+01               0
GRID*               8050               02.0000000000E+01-7.699396374E+01+
*       -8.619107444E+01               0
GRID*               8051               02.0000000000E+01-7.436337479E+01+
*       -8.729317817E+01               0
GRID*               8052               02.0000000000E+01-7.131951057E+01+
*       -9.415055763E+01               0
GRID*               8053               02.0000000000E+01-6.865907553E+01+
*       -9.558679211E+01               0
GRID*               8054               02.0000000000E+01-7.113783912E+01+
*       -9.727713421E+01               0
GRID*               8055               02.0000000000E+01-7.149079927E+01+
*       -9.130541585E+01               0
GRID*               8056               02.0000000000E+01-7.164220046E+01+
*       -8.833223884E+01               0
GRID*               8057               02.0000000000E+01-6.899214816E+01+
*       -8.948703853E+01               0
GRID*               8058               02.0000000000E+01-7.186472368E+01+
*       -8.547480084E+01               0
GRID*               8059               02.0000000000E+01-7.252540901E+01+
*       -7.988901128E+01               0
GRID*               8060               02.0000000000E+01-7.033484361E+01+
*       -7.815545305E+01               0
GRID*               8061               02.0000000000E+01-7.225249647E+01+
*       -8.262265404E+01               0
GRID*               8062               02.0000000000E+01-6.953132215E+01+
*       -8.366171471E+01               0
GRID*               8063               02.0000000000E+01-6.713260368E+01+
*       -8.164027128E+01               0
GRID*               8064               02.0000000000E+01-6.674483088E+01+
*       -8.449241809E+01               0
GRID*               8065               02.0000000000E+01-5.117847427E+01+
*       -6.325974304E+01               0
GRID*               8066               02.0000000000E+01-5.341219034E+01+
*       -6.577603956E+01               0
GRID*               8067               02.0000000000E+01-4.834588940E+01+
*       -6.354428450E+01               0
GRID*               8068               02.0000000000E+01-5.521177715E+01+
*       -6.811876152E+01               0
GRID*               8069               02.0000000000E+01-5.190424614E+01+
*       -6.830397959E+01               0
GRID*               8070               02.0000000000E+01-5.747202057E+01+
*       -6.813049952E+01               0
GRID*               8071               02.0000000000E+01-6.020892538E+01+
*       -6.966995482E+01               0
GRID*               8072               02.0000000000E+01-5.596407636E+01+
*       -7.065843956E+01               0
GRID*               8073               02.0000000000E+01-6.188301735E+01+
*       -7.109566985E+01               0
GRID*               8074               02.0000000000E+01-6.402932330E+01+
*       -7.275442965E+01               0
GRID*               8075               02.0000000000E+01-5.989841176E+01+
*       -7.209589260E+01               0
GRID*               8076               02.0000000000E+01-6.814827487E+01+
*       -7.629129754E+01               0
GRID*               8077               02.0000000000E+01-6.773252620E+01+
*       -7.894541240E+01               0
GRID*               8078               02.0000000000E+01-6.601605016E+01+
*       -7.453425428E+01               0
GRID*               8079               02.0000000000E+01-6.355923060E+01+
*       -7.530143226E+01               0
GRID*               8080               02.0000000000E+01-5.753677029E+01+
*       -7.257968480E+01               0
GRID*               8081               02.0000000000E+01-5.921086227E+01+
*       -7.400539983E+01               0
GRID*               8082               02.0000000000E+01-5.527652687E+01+
*       -7.256794679E+01               0
GRID*               8083               02.0000000000E+01-6.494603494E+01+
*       -7.977611577E+01               0
GRID*               8084               02.0000000000E+01-6.289556062E+01+
*       -7.768295577E+01               0
GRID*               8085               02.0000000000E+01-6.229563809E+01+
*       -8.037781465E+01               0
GRID*               8086               02.0000000000E+01-6.090883375E+01+
*       -7.590313114E+01               0
GRID*               8087               02.0000000000E+01-5.854719228E+01+
*       -7.638692333E+01               0
GRID*               8088               02.0000000000E+01-4.701142457E+01+
*       -6.595213180E+01               0
GRID*               8089               02.0000000000E+01-4.883394086E+01+
*       -6.898027008E+01               0
GRID*               8090               02.0000000000E+01-5.007616676E+01+
*       -7.344617117E+01               0
GRID*               8091               02.0000000000E+01-5.098300173E+01+
*       -7.658928778E+01               0
GRID*               8092               02.0000000000E+01-5.063352767E+01+
*       -7.132299204E+01               0
GRID*               8093               02.0000000000E+01-5.314647204E+01+
*       -7.276988068E+01               0
GRID*               8094               02.0000000000E+01-5.471916596E+01+
*       -7.469112592E+01               0
GRID*               8095               02.0000000000E+01-5.376805658E+01+
*       -7.685045260E+01               0
GRID*               8096               02.0000000000E+01-5.589811141E+01+
*       -7.664851870E+01               0
GRID*               8097               02.0000000000E+01-5.216194718E+01+
*       -7.854668056E+01               0
GRID*               8098               02.0000000000E+01-5.357740331E+01+
*       -8.120912419E+01               0
GRID*               8099               02.0000000000E+01-5.759608290E+01+
*       -7.854625001E+01               0
GRID*               8100               02.0000000000E+01-5.931413497E+01+
*       -8.087135973E+01               0
GRID*               8101               02.0000000000E+01-6.136460929E+01+
*       -8.296451974E+01               0
GRID*               8102               02.0000000000E+01-5.666505410E+01+
*       -8.113295510E+01               0
GRID*               8103               02.0000000000E+01-5.529545538E+01+
*       -8.353423391E+01               0
GRID*               8104               02.0000000000E+01-5.710908958E+01+
*       -8.619274057E+01               0
GRID*               8105               02.0000000000E+01-6.062513059E+01+
*       -8.619383142E+01               0
GRID*               8106               02.0000000000E+01-6.360663370E+01+
*       -8.570028634E+01               0
GRID*               8107               02.0000000000E+01-5.935111399E+01+
*       -8.892850717E+01               0
GRID*               8108               02.0000000000E+01-6.104240072E+01+
*       -9.151409635E+01               0
GRID*               8109               02.0000000000E+01-6.600535217E+01+
*       -8.772172977E+01               0
GRID*               8110               02.0000000000E+01-6.639280915E+01+
*       -9.668840187E+01               0
GRID*               8111               02.0000000000E+01-6.657448059E+01+
*       -9.356182530E+01               0
GRID*               8112               02.0000000000E+01-6.328225425E+01+
*       -9.681496688E+01               0
GRID*               8113               02.0000000000E+01-6.176293033E+01+
*       -9.438101486E+01               0
GRID*               8114               02.0000000000E+01-6.536684918E+01+
*       -9.883993370E+01               0
GRID*               8115               02.0000000000E+01-6.358768460E+01+
*       -9.179651654E+01               0
GRID*               8116               02.0000000000E+01-6.585395099E+01+
*       -9.069490678E+01               0
GRID*               8117               02.0000000000E+01-8.418088820E+01+
*       -9.446141663E+01               0
GRID*               8118               02.0000000000E+01-8.151700567E+01+
*       -9.558229687E+01               0
GRID*               8119               02.0000000000E+01-8.691209392E+01+
*       -9.324743152E+01               0
GRID*               8120               02.0000000000E+01-8.954622376E+01+
*       -9.204889356E+01               0
GRID*               8121               02.0000000000E+01-8.673945939E+01+
*       -9.625062434E+01               0
GRID*               8122               02.0000000000E+01-8.667459614E+01+
*       -9.932331663E+01               0
GRID*               8123               02.0000000000E+01-8.940580186E+01+
*       -9.810933152E+01               0
GRID*               8124               02.0000000000E+01-9.212263914E+01+
*       -9.378387558E+01               0
GRID*               8125               02.0000000000E+01-9.737480512E+01+
*       -1.033083507E+02               0
GRID*               8126               02.0000000000E+01-9.737480512E+01+
*       -1.063083507E+02               0
GRID*               8127               02.0000000000E+01-9.474997074E+01+
*       -9.554583301E+01               0
GRID*               8128               02.0000000000E+01-9.736266415E+01+
*       -9.728027705E+01               0
GRID*               8129               02.0000000000E+01-9.209799671E+01+
*       -9.679859666E+01               0
GRID*               8130               02.0000000000E+01-9.203313346E+01+
*       -9.987128895E+01               0
GRID*               8131               02.0000000000E+01-9.736266415E+01+
*       -1.002802770E+02               0
GRID*               8132               02.0000000000E+01-9.473746928E+01+
*       -1.015886278E+02               0
GRID*               8133               02.0000000000E+01-9.204527443E+01+
*       -1.028993626E+02               0
GRID*               8134               02.0000000000E+01-7.874150672E+01+
*       -9.658891990E+01               0
GRID*               8135               02.0000000000E+01-7.612776496E+01+
*       -9.765937763E+01               0
GRID*               8136               02.0000000000E+01-8.123275472E+01+
*       -9.847123249E+01               0
GRID*               8137               02.0000000000E+01-8.094279703E+01+
*       -1.018221301E+02               0
GRID*               8138               02.0000000000E+01-8.371829598E+01+
*       -1.008155071E+02               0
GRID*               8139               02.0000000000E+01-9.742512299E+01+
*       -1.093040225E+02               0
GRID*               8140               02.0000000000E+01-9.742512299E+01+
*       -1.123040225E+02               0
GRID*               8141               02.0000000000E+01-9.479992811E+01+
*       -1.076123733E+02               0
GRID*               8142               02.0000000000E+01-9.215024124E+01+
*       -1.059834711E+02               0
GRID*               8143               02.0000000000E+01-9.220055911E+01+
*       -1.089791430E+02               0
GRID*               8144               02.0000000000E+01-8.638463845E+01+
*       -1.026742143E+02               0
GRID*               8145               02.0000000000E+01-8.944590542E+01+
*       -1.042661323E+02               0
GRID*               8146               02.0000000000E+01-8.648960526E+01+
*       -1.057583228E+02               0
GRID*               8147               02.0000000000E+01-9.746703381E+01+
*       -1.152437735E+02               0
GRID*               8148               02.0000000000E+01-9.746703381E+01+
*       -1.182437735E+02               0
GRID*               8149               02.0000000000E+01-7.378036489E+01+
*       -9.828968152E+01               0
GRID*               8150               02.0000000000E+01-7.111992985E+01+
*       -9.972591601E+01               0
GRID*               8151               02.0000000000E+01-9.489215681E+01+
*       -1.135477961E+02               0
GRID*               8152               02.0000000000E+01-9.236057569E+01+
*       -1.118931166E+02               0
GRID*               8153               02.0000000000E+01-9.240248652E+01+
*       -1.148328676E+02               0
GRID*               8154               02.0000000000E+01-7.610985569E+01+
*       -1.001081594E+02               0
GRID*               8155               02.0000000000E+01-7.533653880E+01+
*       -1.029745476E+02               0
GRID*               8156               02.0000000000E+01-7.768393888E+01+
*       -1.023442437E+02               0
GRID*               8157               02.0000000000E+01-8.971088882E+01+
*       -1.102642145E+02               0
GRID*               8158               02.0000000000E+01-8.722746415E+01+
*       -1.087990711E+02               0
GRID*               8159               02.0000000000E+01-8.738748074E+01+
*       -1.117130447E+02               0
GRID*               8160               02.0000000000E+01-8.016948014E+01+
*       -1.046885183E+02               0
GRID*               8161               02.0000000000E+01-7.881923531E+01+
*       -1.068485287E+02               0
GRID*               8162               02.0000000000E+01-8.207809345E+01+
*       -1.063264151E+02               0
GRID*               8163               02.0000000000E+01-8.416619718E+01+
*       -1.072071530E+02               0
GRID*               8164               02.0000000000E+01-8.281595235E+01+
*       -1.093671634E+02               0
GRID*               8165               02.0000000000E+01-8.499880845E+01+
*       -1.128944662E+02               0
GRID*               8166               02.0000000000E+01-8.748223311E+01+
*       -1.143596095E+02               0
GRID*               8167               02.0000000000E+01-8.284563713E+01+
*       -1.113671002E+02               0
GRID*               8168               02.0000000000E+01-8.075753341E+01+
*       -1.104863623E+02               0
GRID*               8169               02.0000000000E+01-8.294038951E+01+
*       -1.140136650E+02               0
GRID*               8170               02.0000000000E+01-8.047197555E+01+
*       -1.149724028E+02               0
GRID*               8171               02.0000000000E+01-8.262514686E+01+
*       -1.164997688E+02               0
GRID*               8172               02.0000000000E+01-7.824556927E+01+
*       -1.155005316E+02               0
GRID*               8173               02.0000000000E+01-7.856081192E+01+
*       -1.130144278E+02               0
GRID*               8174               02.0000000000E+01-7.547655614E+01+
*       -1.160138088E+02               0
GRID*               8175               02.0000000000E+01-7.377512263E+01+
*       -1.136516894E+02               0
GRID*               8176               02.0000000000E+01-7.738771977E+01+
*       -1.179717837E+02               0
GRID*               8177               02.0000000000E+01-7.923821751E+01+
*       -1.111743543E+02               0
GRID*               8178               02.0000000000E+01-7.701181124E+01+
*       -1.117024832E+02               0
GRID*               8179               02.0000000000E+01-7.920853273E+01+
*       -1.091744176E+02               0
GRID*               8180               02.0000000000E+01-7.729991941E+01+
*       -1.075365207E+02               0
GRID*               8181               02.0000000000E+01-7.495358499E+01+
*       -1.114364300E+02               0
GRID*               8182               02.0000000000E+01-7.563099058E+01+
*       -1.095963566E+02               0
GRID*               8183               02.0000000000E+01-7.239430197E+01+
*       -1.115455628E+02               0
GRID*               8184               02.0000000000E+01-7.092248771E+01+
*       -1.091520531E+02               0
GRID*               8185               02.0000000000E+01-6.823064327E+01+
*       -1.042253634E+02               0
GRID*               8186               02.0000000000E+01-6.966942031E+01+
*       -1.067520548E+02               0
GRID*               8187               02.0000000000E+01-6.693603054E+01+
*       -1.013168943E+02               0
GRID*               8188               02.0000000000E+01-6.977201681E+01+
*       -1.016218378E+02               0
GRID*               8189               02.0000000000E+01-7.241454258E+01+
*       -1.026343851E+02               0
GRID*               8190               02.0000000000E+01-7.231969693E+01+
*       -1.069303052E+02               0
GRID*               8191               02.0000000000E+01-7.398862576E+01+
*       -1.048704693E+02               0
GRID*               8192               02.0000000000E+01-7.524169316E+01+
*       -1.072704676E+02               0
GRID*               8193               02.0000000000E+01-8.991738234E+01+
*       -1.160142911E+02               0
GRID*               8194               02.0000000000E+01-8.752871004E+01+
*       -1.171957126E+02               0
GRID*               8195               02.0000000000E+01-9.244896345E+01+
*       -1.176689706E+02               0
GRID*               8196               02.0000000000E+01-9.747416887E+01+
*       -1.211486189E+02               0
GRID*               8197               02.0000000000E+01-9.747416887E+01+
*       -1.241486189E+02               0
GRID*               8198               02.0000000000E+01-9.494120268E+01+
*       -1.193923925E+02               0
GRID*               8199               02.0000000000E+01-9.245609850E+01+
*       -1.205738160E+02               0
GRID*               8200               02.0000000000E+01-9.742447695E+01+
*       -1.269933270E+02               0
GRID*               8201               02.0000000000E+01-9.742447695E+01+
*       -1.299933270E+02               0
GRID*               8202               02.0000000000E+01-9.489864581E+01+
*       -1.251419460E+02               0
GRID*               8203               02.0000000000E+01-9.246764949E+01+
*       -1.233904953E+02               0
GRID*               8204               02.0000000000E+01-9.241795757E+01+
*       -1.262352034E+02               0
GRID*               8205               02.0000000000E+01-8.503415284E+01+
*       -1.183530717E+02               0
GRID*               8206               02.0000000000E+01-8.746930206E+01+
*       -1.200077533E+02               0
GRID*               8207               02.0000000000E+01-8.256573888E+01+
*       -1.193118095E+02               0
GRID*               8208               02.0000000000E+01-8.997541026E+01+
*       -1.216670735E+02               0
GRID*               8209               02.0000000000E+01-8.748085305E+01+
*       -1.228244326E+02               0
GRID*               8210               02.0000000000E+01-8.222793455E+01+
*       -1.253858435E+02               0
GRID*               8211               02.0000000000E+01-8.333568605E+01+
*       -1.285532495E+02               0
GRID*               8212               02.0000000000E+01-7.966434932E+01+
*       -1.206939819E+02               0
GRID*               8213               02.0000000000E+01-8.207335530E+01+
*       -1.225472849E+02               0
GRID*               8214               02.0000000000E+01-8.512932410E+01+
*       -1.240036711E+02               0
GRID*               8215               02.0000000000E+01-9.207976308E+01+
*       -1.415901079E+02               0
GRID*               8216               02.0000000000E+01-9.003080896E+01+
*       -1.391042890E+02               0
GRID*               8217               02.0000000000E+01-9.510985958E+01+
*       -1.480574652E+02               0
GRID*               8218               02.0000000000E+01-9.377576723E+01+
*       -1.452978148E+02               0
GRID*               8219               02.0000000000E+01-9.814016261E+01+
*       -1.480574652E+02               0
GRID*               8220               02.0000000000E+01-9.814016261E+01+
*       -1.450574652E+02               0
GRID*               8221               02.0000000000E+01-9.803903881E+01+
*       -1.401745671E+02               0
GRID*               8222               02.0000000000E+01-9.803903881E+01+
*       -1.431745671E+02               0
GRID*               8223               02.0000000000E+01-9.644415845E+01+
*       -1.383497583E+02               0
GRID*               8224               02.0000000000E+01-9.448319727E+01+
*       -1.405243254E+02               0
GRID*               8225               02.0000000000E+01-9.617920142E+01+
*       -1.442320323E+02               0
GRID*               8226               02.0000000000E+01-9.367464344E+01+
*       -1.434149167E+02               0
GRID*               8227               02.0000000000E+01-8.364584872E+01+
*       -1.307836536E+02               0
GRID*               8228               02.0000000000E+01-8.559406603E+01+
*       -1.290726339E+02               0
GRID*               8229               02.0000000000E+01-8.489205168E+01+
*       -1.331608127E+02               0
GRID*               8230               02.0000000000E+01-8.644389731E+01+
*       -1.348112176E+02               0
GRID*               8231               02.0000000000E+01-8.745607433E+01+
*       -1.329534429E+02               0
GRID*               8232               02.0000000000E+01-8.809061049E+01+
*       -1.370564546E+02               0
GRID*               8233               02.0000000000E+01-9.094811843E+01+
*       -1.366516822E+02               0
GRID*               8234               02.0000000000E+01-8.763543230E+01+
*       -1.256629913E+02               0
GRID*               8235               02.0000000000E+01-8.994188531E+01+
*       -1.271288912E+02               0
GRID*               8236               02.0000000000E+01-8.759035636E+01+
*       -1.283081298E+02               0
GRID*               8237               02.0000000000E+01-9.237288163E+01+
*       -1.288803419E+02               0
GRID*               8238               02.0000000000E+01-8.790051903E+01+
*       -1.305385338E+02               0
GRID*               8239               02.0000000000E+01-9.364017688E+01+
*       -1.360811551E+02               0
GRID*               8240               02.0000000000E+01-9.169997840E+01+
*       -1.340333207E+02               0
GRID*               8241               02.0000000000E+01-9.719601842E+01+
*       -1.357313968E+02               0
GRID*               8242               02.0000000000E+01-9.719601842E+01+
*       -1.327313968E+02               0
GRID*               8243               02.0000000000E+01-8.945236466E+01+
*       -1.321889387E+02               0
GRID*               8244               02.0000000000E+01-9.214442311E+01+
*       -1.316184116E+02               0
GRID*               8245               02.0000000000E+01-9.462049537E+01+
*       -1.307247238E+02               0
GRID*               8246               02.0000000000E+01-6.623912068E+00+
*       -2.537958866E+01               0
GRID*               8247               02.0000000000E+01-8.114847744E+00+
*       -2.288755346E+01               0
GRID*               8248               02.0000000000E+01-9.391809956E+00+
*       -2.045723331E+01               0
GRID*               8249               02.0000000000E+01-1.088157014E+01+
*       -1.833227534E+01               0
GRID*               8250               02.0000000000E+01-1.197078410E+01+
*       -1.623587950E+01               0
GRID*               8251               02.0000000000E+01-1.324629425E+01+
*       -1.436873921E+01               0
GRID*               8252               02.0000000000E+01-1.644335847E+01+
*       -9.475496437E+00               0
GRID*               8253               02.0000000000E+01-1.417174856E+01+
*       -1.273429369E+01               0
GRID*               8254               02.0000000000E+01-1.362551924E+01+
*       -1.152885790E+01               0
GRID*               8255               02.0000000000E+01-1.399148850E+01+
*       -9.817269713E+00               0
GRID*               8256               02.0000000000E+01-1.545713244E+01+
*       -1.183895941E+01               0
GRID*               8257               02.0000000000E+01-1.527971003E+01+
*       -9.583388386E+00               0
GRID*               8258               02.0000000000E+01-1.607455157E+01+
*       -1.052563167E+01               0
GRID*               8259               02.0000000000E+01-2.536686113E+01+
*       -8.467246180E+00               0
GRID*               8260               02.0000000000E+01-2.618940805E+01+
*       -9.040029216E+00               0
GRID*               8261               02.0000000000E+01-2.289761343E+01+
*       -7.159034916E+00               0
GRID*               8262               02.0000000000E+01-2.541432615E+01+
*       -6.721815617E+00               0
GRID*               8263               02.0000000000E+01-2.546853545E+01+
*       -7.583289713E+00               0
GRID*               8264               02.0000000000E+01-2.613419969E+01+
*       -7.192723779E+00               0
GRID*               8265               02.0000000000E+01-2.473821259E+01+
*       -6.388038075E+00               0
GRID*               8266               02.0000000000E+01-2.422145508E+01+
*       -6.623261632E+00               0
GRID*               8267               02.0000000000E+01-2.540387682E+01+
*       -5.997472141E+00               0
GRID*               8268               02.0000000000E+01-2.464698758E+01+
*       -7.996338018E+00               0
GRID*               8269               02.0000000000E+01-2.401772240E+01+
*       -7.407753437E+00               0
GRID*               8270               02.0000000000E+01-2.349051557E+01+
*       -6.918633518E+00               0
GRID*               8271               02.0000000000E+01-2.608425860E+01+
*       -5.305330217E+00               0
GRID*               8272               02.0000000000E+01-2.650915223E+01+
*       -5.058427556E+00               0
GRID*               8273               02.0000000000E+01-2.585563564E+01+
*       -5.765289291E+00               0
GRID*               8274               02.0000000000E+01-2.630861335E+01+
*       -5.871290609E+00               0
GRID*               8275               02.0000000000E+01-2.922263926E+01+
*       -2.967137501E+00               0
GRID*               8276               02.0000000000E+01-2.951927214E+01+
*       -2.575601435E+00               0
GRID*               8277               02.0000000000E+01-2.885622849E+01+
*       -3.349676066E+00               0
GRID*               8278               02.0000000000E+01-2.850580228E+01+
*       -3.694723224E+00               0
GRID*               8279               02.0000000000E+01-2.931864344E+01+
*       -3.470389184E+00               0
GRID*               8280               02.0000000000E+01-2.946243216E+01+
*       -4.006756511E+00               0
GRID*               8281               02.0000000000E+01-2.982884293E+01+
*       -3.624217945E+00               0
GRID*               8282               02.0000000000E+01-3.200405663E+01+
*       -1.148833002E+01               0
GRID*               8283               02.0000000000E+01-3.073631759E+01+
*       -1.091250681E+01               0
GRID*               8284               02.0000000000E+01-2.990658797E+01+
*       -1.060199131E+01               0
GRID*               8285               02.0000000000E+01-2.892483044E+01+
*       -1.037988693E+01               0
GRID*               8286               02.0000000000E+01-3.051780650E+01+
*       -1.003739065E+01               0
GRID*               8287               02.0000000000E+01-3.125395755E+01+
*       -9.474882971E+00               0
GRID*               8288               02.0000000000E+01-3.042422793E+01+
*       -9.164367469E+00               0
GRID*               8289               02.0000000000E+01-2.954540986E+01+
*       -4.561011060E+00               0
GRID*               8290               02.0000000000E+01-2.972942327E+01+
*       -5.165311166E+00               0
GRID*               8291               02.0000000000E+01-3.015664505E+01+
*       -4.764885379E+00               0
GRID*               8292               02.0000000000E+01-2.903521037E+01+
*       -4.407182298E+00               0
GRID*               8293               02.0000000000E+01-2.979122117E+01+
*       -5.824134310E+00               0
GRID*               8294               02.0000000000E+01-2.999301662E+01+
*       -6.566414865E+00               0
GRID*               8295               02.0000000000E+01-3.054245392E+01+
*       -6.111466040E+00               0
GRID*               8296               02.0000000000E+01-2.917998597E+01+
*       -5.620259991E+00               0
GRID*               8297               02.0000000000E+01-3.007676063E+01+
*       -7.379749291E+00               0
GRID*               8298               02.0000000000E+01-2.932552787E+01+
*       -7.092417561E+00               0
GRID*               8299               02.0000000000E+01-3.028482543E+01+
*       -8.253805890E+00               0
GRID*               8300               02.0000000000E+01-2.954867438E+01+
*       -8.816313565E+00               0
GRID*               8301               02.0000000000E+01-3.095231418E+01+
*       -7.727803195E+00               0
GRID*               8302               02.0000000000E+01-2.809387811E+01+
*       -4.029186051E+00               0
GRID*               8303               02.0000000000E+01-2.771094463E+01+
*       -4.337093190E+00               0
GRID*               8304               02.0000000000E+01-2.854030850E+01+
*       -4.187390576E+00               0
GRID*               8305               02.0000000000E+01-2.862328620E+01+
*       -4.741645125E+00               0
GRID*               8306               02.0000000000E+01-2.856787306E+01+
*       -7.455364052E+00               0
GRID*               8307               02.0000000000E+01-2.848412905E+01+
*       -6.642029626E+00               0
GRID*               8308               02.0000000000E+01-2.704357572E+01+
*       -9.487731181E+00               0
GRID*               8309               02.0000000000E+01-2.802916417E+01+
*       -9.991250256E+00               0
GRID*               8310               02.0000000000E+01-2.704257667E+01+
*       -8.501899840E+00               0
GRID*               8311               02.0000000000E+01-2.781160929E+01+
*       -7.977288961E+00               0
GRID*               8312               02.0000000000E+01-2.695744162E+01+
*       -7.529586996E+00               0
GRID*               8313               02.0000000000E+01-2.865300811E+01+
*       -8.427676896E+00               0
GRID*               8314               02.0000000000E+01-2.879241061E+01+
*       -9.338238474E+00               0
GRID*               8315               02.0000000000E+01-2.687616167E+01+
*       -4.872283796E+00               0
GRID*               8316               02.0000000000E+01-2.690424574E+01+
*       -5.225187775E+00               0
GRID*               8317               02.0000000000E+01-2.728238005E+01+
*       -4.595688497E+00               0
GRID*               8318               02.0000000000E+01-2.769981975E+01+
*       -4.780448710E+00               0
GRID*               8319               02.0000000000E+01-2.867257161E+01+
*       -5.932016597E+00               0
GRID*               8320               02.0000000000E+01-2.861077371E+01+
*       -5.273193453E+00               0
GRID*               8321               02.0000000000E+01-2.690323231E+01+
*       -6.668112899E+00               0
GRID*               8322               02.0000000000E+01-2.791491679E+01+
*       -6.294963087E+00               0
GRID*               8323               02.0000000000E+01-2.743491277E+01+
*       -6.419636229E+00               0
GRID*               8324               02.0000000000E+01-2.661167084E+01+
*       -6.082773012E+00               0
GRID*               8325               02.0000000000E+01-2.762335533E+01+
*       -5.709623200E+00               0
GRID*               8326               02.0000000000E+01-2.811587184E+01+
*       -5.053401731E+00               0
GRID*               8327               02.0000000000E+01-2.768730727E+01+
*       -5.311997037E+00               0
GRID*               8328               02.0000000000E+01-2.720730324E+01+
*       -5.436670178E+00               0
GRID*               8329               02.0000000000E+01-2.684029381E+01+
*       -5.622813938E+00               0
GRID*               8330               02.0000000000E+01-2.975766390E+01+
*       2.0261833450E+00               0
GRID*               8331               02.0000000000E+01-2.949260440E+01+
*       2.4398524960E+00               0
GRID*               8332               02.0000000000E+01-2.939003831E+01+
*       2.9363485410E+00               0
GRID*               8333               02.0000000000E+01-2.983843540E+01+
*       2.8716921812E+00               0
GRID*               8334               02.0000000000E+01-2.906166342E+01+
*       3.3018353259E+00               0
GRID*               8335               02.0000000000E+01-2.861432084E+01+
*       3.7527700365E+00               0
GRID*               8336               02.0000000000E+01-2.824446504E+01+
*       4.0767485322E+00               0
GRID*               8337               02.0000000000E+01-2.928852673E+01+
*       3.8191229368E+00               0
GRID*               8338               02.0000000000E+01-2.994062349E+01+
*       4.0156460086E+00               0
GRID*               8339               02.0000000000E+01-2.949328091E+01+
*       4.4665807192E+00               0
GRID*               8340               02.0000000000E+01-2.781191496E+01+
*       4.4464563230E+00               0
GRID*               8341               02.0000000000E+01-2.967197655E+01+
*       5.0674898129E+00               0
GRID*               8342               02.0000000000E+01-2.901987978E+01+
*       4.8709667412E+00               0
GRID*               8343               02.0000000000E+01-3.031007880E+01+
*       5.3176326902E+00               0
GRID*               8344               02.0000000000E+01-2.840863407E+01+
*       4.6397654382E+00               0
GRID*               8345               02.0000000000E+01-9.740446771E+01+
*       -5.523858098E+01               0
GRID*               8346               02.0000000000E+01-9.743703582E+01+
*       -5.223863115E+01               0
GRID*               8347               02.0000000000E+01-9.743703582E+01+
*       -4.923863115E+01               0
GRID*               8348               02.0000000000E+01-9.484150353E+01+
*       -5.347721213E+01               0
GRID*               8349               02.0000000000E+01-9.228035395E+01+
*       -5.169712290E+01               0
GRID*               8350               02.0000000000E+01-8.975630475E+01+
*       -4.994398676E+01               0
GRID*               8351               02.0000000000E+01-8.724309693E+01+
*       -4.816423844E+01               0
GRID*               8352               02.0000000000E+01-9.235002243E+01+
*       -4.872412616E+01               0
GRID*               8353               02.0000000000E+01-9.746980060E+01+
*       -4.625821310E+01               0
GRID*               8354               02.0000000000E+01-9.746980060E+01+
*       -4.325821310E+01               0
GRID*               8355               02.0000000000E+01-9.490683641E+01+
*       -4.749684425E+01               0
GRID*               8356               02.0000000000E+01-9.238278721E+01+
*       -4.574370811E+01               0
GRID*               8357               02.0000000000E+01-8.492959275E+01+
*       -4.057782995E+01               0
GRID*               8358               02.0000000000E+01-8.739281811E+01+
*       -4.227841328E+01               0
GRID*               8359               02.0000000000E+01-8.747024336E+01+
*       -3.936707940E+01               0
GRID*               8360               02.0000000000E+01-8.248945685E+01+
*       -3.886091380E+01               0
GRID*               8361               02.0000000000E+01-8.241203159E+01+
*       -4.177224768E+01               0
GRID*               8362               02.0000000000E+01-7.985532491E+01+
*       -4.294871011E+01               0
GRID*               8363               02.0000000000E+01-7.744068006E+01+
*       -4.122078803E+01               0
GRID*               8364               02.0000000000E+01-8.229546081E+01+
*       -4.466562626E+01               0
GRID*               8365               02.0000000000E+01-8.987972098E+01+
*       -4.401932638E+01               0
GRID*               8366               02.0000000000E+01-9.243653496E+01+
*       -4.279204447E+01               0
GRID*               8367               02.0000000000E+01-8.733907036E+01+
*       -4.523007692E+01               0
GRID*               8368               02.0000000000E+01-8.475619406E+01+
*       -4.642332535E+01               0
GRID*               8369               02.0000000000E+01-9.748805047E+01+
*       -4.028443556E+01               0
GRID*               8370               02.0000000000E+01-9.748805047E+01+
*       -3.728443556E+01               0
GRID*               8371               02.0000000000E+01-9.495785107E+01+
*       -4.154264866E+01               0
GRID*               8372               02.0000000000E+01-9.245478483E+01+
*       -3.981826693E+01               0
GRID*               8373               02.0000000000E+01-8.996871997E+01+
*       -3.813190781E+01               0
GRID*               8374               02.0000000000E+01-8.750549462E+01+
*       -3.643132447E+01               0
GRID*               8375               02.0000000000E+01-9.249003608E+01+
*       -3.688251199E+01               0
GRID*               8376               02.0000000000E+01-9.749572006E+01+
*       -3.432009240E+01               0
GRID*               8377               02.0000000000E+01-9.749572006E+01+
*       -3.132009240E+01               0
GRID*               8378               02.0000000000E+01-9.498377052E+01+
*       -3.560452796E+01               0
GRID*               8379               02.0000000000E+01-9.249770567E+01+
*       -3.391816883E+01               0
GRID*               8380               02.0000000000E+01-9.002878054E+01+
*       -3.228454399E+01               0
GRID*               8381               02.0000000000E+01-8.759765263E+01+
*       -3.062776216E+01               0
GRID*               8382               02.0000000000E+01-8.757284332E+01+
*       -3.353937105E+01               0
GRID*               8383               02.0000000000E+01-9.252251498E+01+
*       -3.100655995E+01               0
GRID*               8384               02.0000000000E+01-9.749512418E+01+
*       -2.837057207E+01               0
GRID*               8385               02.0000000000E+01-9.749512418E+01+
*       -2.537057207E+01               0
GRID*               8386               02.0000000000E+01-9.499084424E+01+
*       -2.969066447E+01               0
GRID*               8387               02.0000000000E+01-9.252191910E+01+
*       -2.805703963E+01               0
GRID*               8388               02.0000000000E+01-7.504514730E+01+
*       -3.951519301E+01               0
GRID*               8389               02.0000000000E+01-7.266062012E+01+
*       -3.781114107E+01               0
GRID*               8390               02.0000000000E+01-7.757636293E+01+
*       -3.834973651E+01               0
GRID*               8391               02.0000000000E+01-8.507436671E+01+
*       -3.477454264E+01               0
GRID*               8392               02.0000000000E+01-8.266595280E+01+
*       -3.308762854E+01               0
GRID*               8393               02.0000000000E+01-8.259860410E+01+
*       -3.597958196E+01               0
GRID*               8394               02.0000000000E+01-8.008104294E+01+
*       -3.717399969E+01               0
GRID*               8395               02.0000000000E+01-7.768551018E+01+
*       -3.546840467E+01               0
GRID*               8396               02.0000000000E+01-9.005460192E+01+
*       -2.650710111E+01               0
GRID*               8397               02.0000000000E+01-8.766613693E+01+
*       -2.493308274E+01               0
GRID*               8398               02.0000000000E+01-8.766512486E+01+
*       -2.779891674E+01               0
GRID*               8399               02.0000000000E+01-9.252293117E+01+
*       -2.519120563E+01               0
GRID*               8400               02.0000000000E+01-9.747450594E+01+
*       -2.243458739E+01               0
GRID*               8401               02.0000000000E+01-9.747450594E+01+
*       -1.943458739E+01               0
GRID*               8402               02.0000000000E+01-9.496963012E+01+
*       -2.380515947E+01               0
GRID*               8403               02.0000000000E+01-9.250231294E+01+
*       -2.225522095E+01               0
GRID*               8404               02.0000000000E+01-8.520918764E+01+
*       -2.905374379E+01               0
GRID*               8405               02.0000000000E+01-8.286494836E+01+
*       -2.741752178E+01               0
GRID*               8406               02.0000000000E+01-8.279747613E+01+
*       -3.024636720E+01               0
GRID*               8407               02.0000000000E+01-8.032171352E+01+
*       -3.145140652E+01               0
GRID*               8408               02.0000000000E+01-7.797431087E+01+
*       -2.976403217E+01               0
GRID*               8409               02.0000000000E+01-7.784278754E+01+
*       -3.260529351E+01               0
GRID*               8410               02.0000000000E+01-7.029662822E+01+
*       -3.610571967E+01               0
GRID*               8411               02.0000000000E+01-6.791225630E+01+
*       -3.440697946E+01               0
GRID*               8412               02.0000000000E+01-7.281683827E+01+
*       -3.493872010E+01               0
GRID*               8413               02.0000000000E+01-7.533810753E+01+
*       -3.378103032E+01               0
GRID*               8414               02.0000000000E+01-7.297411563E+01+
*       -3.207560893E+01               0
GRID*               8415               02.0000000000E+01-9.742573742E+01+
*       -1.648817949E+01               0
GRID*               8416               02.0000000000E+01-9.742573742E+01+
*       -1.348817949E+01               0
GRID*               8417               02.0000000000E+01-9.490024336E+01+
*       -1.792276689E+01               0
GRID*               8418               02.0000000000E+01-9.238251999E+01+
*       -1.646613624E+01               0
GRID*               8419               02.0000000000E+01-9.243128851E+01+
*       -1.941254414E+01               0
GRID*               8420               02.0000000000E+01-8.530305291E+01+
*       -2.351975461E+01               0
GRID*               8421               02.0000000000E+01-8.307228487E+01+
*       -2.199662593E+01               0
GRID*               8422               02.0000000000E+01-8.304589183E+01+
*       -2.470176970E+01               0
GRID*               8423               02.0000000000E+01-8.769252997E+01+
*       -2.222793898E+01               0
GRID*               8424               02.0000000000E+01-8.998458957E+01+
*       -2.079859030E+01               0
GRID*               8425               02.0000000000E+01-8.762150554E+01+
*       -1.938526217E+01               0
GRID*               8426               02.0000000000E+01-6.555487317E+01+
*       -3.268315912E+01               0
GRID*               8427               02.0000000000E+01-6.315993420E+01+
*       -3.095316350E+01               0
GRID*               8428               02.0000000000E+01-6.809546324E+01+
*       -3.150947836E+01               0
GRID*               8429               02.0000000000E+01-7.066030338E+01+
*       -3.035787294E+01               0
GRID*               8430               02.0000000000E+01-6.830292025E+01+
*       -2.863405260E+01               0
GRID*               8431               02.0000000000E+01-7.318157264E+01+
*       -2.920018317E+01               0
GRID*               8432               02.0000000000E+01-8.063418032E+01+
*       -2.589439310E+01               0
GRID*               8433               02.0000000000E+01-7.838280866E+01+
*       -2.421993844E+01               0
GRID*               8434               02.0000000000E+01-7.820186519E+01+
*       -2.693569052E+01               0
GRID*               8435               02.0000000000E+01-7.572293921E+01+
*       -2.808957751E+01               0
GRID*               8436               02.0000000000E+01-7.340912696E+01+
*       -2.637184151E+01               0
GRID*               8437               02.0000000000E+01-6.079445688E+01+
*       -2.921456677E+01               0
GRID*               8438               02.0000000000E+01-5.842908545E+01+
*       -2.747374409E+01               0
GRID*               8439               02.0000000000E+01-6.337260279E+01+
*       -2.804706129E+01               0
GRID*               8440               02.0000000000E+01-7.633777365E+01+
*       -2.249287872E+01               0
GRID*               8441               02.0000000000E+01-7.877008877E+01+
*       -2.145158130E+01               0
GRID*               8442               02.0000000000E+01-7.409900965E+01+
*       -2.072212647E+01               0
GRID*               8443               02.0000000000E+01-7.371172954E+01+
*       -2.349048360E+01               0
GRID*               8444               02.0000000000E+01-6.597931454E+01+
*       -2.687910435E+01               0
GRID*               8445               02.0000000000E+01-6.361383722E+01+
*       -2.514050762E+01               0
GRID*               8446               02.0000000000E+01-6.854415468E+01+
*       -2.572749893E+01               0
GRID*               8447               02.0000000000E+01-7.117036297E+01+
*       -2.460108926E+01               0
GRID*               8448               02.0000000000E+01-6.884675725E+01+
*       -2.284614102E+01               0
GRID*               8449               02.0000000000E+01-8.105538243E+01+
*       -2.089014178E+01               0
GRID*               8450               02.0000000000E+01-7.901034742E+01+
*       -1.916308206E+01               0
GRID*               8451               02.0000000000E+01-8.331254351E+01+
*       -1.970812669E+01               0
GRID*               8452               02.0000000000E+01-8.508838325E+01+
*       -1.811842673E+01               0
GRID*               8453               02.0000000000E+01-8.738044285E+01+
*       -1.668907805E+01               0
GRID*               8454               02.0000000000E+01-8.307148082E+01+
*       -1.701194257E+01               0
GRID*               8455               02.0000000000E+01-8.976421733E+01+
*       -1.504702152E+01               0
GRID*               8456               02.0000000000E+01-8.723109504E+01+
*       -1.378018607E+01               0
GRID*               8457               02.0000000000E+01-9.223317218E+01+
*       -1.355724426E+01               0
GRID*               8458               02.0000000000E+01-9.736147137E+01+
*       -1.050565816E+01               0
GRID*               8459               02.0000000000E+01-9.736147137E+01+
*       -7.505658157E+00               0
GRID*               8460               02.0000000000E+01-9.478720879E+01+
*       -1.199383765E+01               0
GRID*               8461               02.0000000000E+01-9.216890613E+01+
*       -1.057472293E+01               0
GRID*               8462               02.0000000000E+01-5.603424962E+01+
*       -2.575491267E+01               0
GRID*               8463               02.0000000000E+01-5.368573102E+01+
*       -2.412938128E+01               0
GRID*               8464               02.0000000000E+01-9.730366944E+01+
*       -4.489738434E+00               0
GRID*               8465               02.0000000000E+01-9.730366944E+01+
*       -1.489738434E+00               0
GRID*               8466               02.0000000000E+01-5.861228964E+01+
*       -2.458963314E+01               0
GRID*               8467               02.0000000000E+01-9.466514081E+01+
*       -5.995396591E+00               0
GRID*               8468               02.0000000000E+01-6.125428003E+01+
*       -2.337405636E+01               0
GRID*               8469               02.0000000000E+01-5.885944420E+01+
*       -2.165522494E+01               0
GRID*               8470               02.0000000000E+01-9.201850132E+01+
*       -7.564655024E+00               0
GRID*               8471               02.0000000000E+01-9.196069939E+01+
*       -4.548735301E+00               0
GRID*               8472               02.0000000000E+01-6.386099178E+01+
*       -2.220609942E+01               0
GRID*               8473               02.0000000000E+01-8.946446471E+01+
*       -9.128061637E+00               0
GRID*               8474               02.0000000000E+01-6.653701898E+01+
*       -2.102806416E+01               0
GRID*               8475               02.0000000000E+01-6.417746179E+01+
*       -1.926161290E+01               0
GRID*               8476               02.0000000000E+01-8.687259801E+01+
*       -1.081533694E+01               0
GRID*               8477               02.0000000000E+01-8.672219319E+01+
*       -7.805269037E+00               0
GRID*               8478               02.0000000000E+01-6.916322727E+01+
*       -1.990165450E+01               0
GRID*               8479               02.0000000000E+01-8.448882352E+01+
*       -1.245739347E+01               0
GRID*               8480               02.0000000000E+01-7.191253383E+01+
*       -1.876329138E+01               0
GRID*               8481               02.0000000000E+01-6.960279556E+01+
*       -1.694521452E+01               0
GRID*               8482               02.0000000000E+01-7.453857794E+01+
*       -1.776568649E+01               0
GRID*               8483               02.0000000000E+01-8.176722097E+01+
*       -1.450722830E+01               0
GRID*               8484               02.0000000000E+01-7.999138123E+01+
*       -1.609692826E+01               0
GRID*               8485               02.0000000000E+01-8.140872394E+01+
*       -1.154237916E+01               0
GRID*               8486               02.0000000000E+01-7.770608757E+01+
*       -1.665836778E+01               0
GRID*               8487               02.0000000000E+01-7.551961175E+01+
*       -1.469953270E+01               0
GRID*               8488               02.0000000000E+01-9.726607539E+01+
*       1.5422215446E+00               0
GRID*               8489               02.0000000000E+01-9.456974483E+01+
*       5.2483110569E-02               0
GRID*               8490               02.0000000000E+01-9.726607539E+01+
*       4.5422215446E+00               0
GRID*               8491               02.0000000000E+01-9.184991585E+01+
*       -1.492619731E+00               0
GRID*               8492               02.0000000000E+01-8.920327636E+01+
*       -3.061878164E+00               0
GRID*               8493               02.0000000000E+01-9.181232180E+01+
*       1.5393402475E+00               0
GRID*               8494               02.0000000000E+01-8.132929484E+01+
*       -8.082135284E+00               0
GRID*               8495               02.0000000000E+01-8.394735280E+01+
*       -6.396842280E+00               0
GRID*               8496               02.0000000000E+01-8.114632115E+01+
*       -4.986433224E+00               0
GRID*               8497               02.0000000000E+01-7.860769228E+01+
*       -1.013197011E+01               0
GRID*               8498               02.0000000000E+01-8.653921951E+01+
*       -4.709566977E+00               0
GRID*               8499               02.0000000000E+01-8.642843597E+01+
*       -1.653451407E+00               0
GRID*               8500               02.0000000000E+01-7.272247797E+01+
*       -1.272540343E+01               0
GRID*               8501               02.0000000000E+01-7.033669545E+01+
*       -1.087768063E+01               0
GRID*               8502               02.0000000000E+01-6.996631960E+01+
*       -1.395912860E+01               0
GRID*               8503               02.0000000000E+01-7.588998760E+01+
*       -1.161808472E+01               0
GRID*               8504               02.0000000000E+01-7.581055850E+01+
*       -8.157840843E+00               0
GRID*               8505               02.0000000000E+01-5.115534696E+01+
*       -2.243701004E+01               0
GRID*               8506               02.0000000000E+01-4.825617000E+01+
*       -2.104439432E+01               0
GRID*               8507               02.0000000000E+01-5.368706976E+01+
*       -2.117843048E+01               0
GRID*               8508               02.0000000000E+01-5.644080517E+01+
*       -1.988680393E+01               0
GRID*               8509               02.0000000000E+01-5.908279556E+01+
*       -1.867122715E+01               0
GRID*               8510               02.0000000000E+01-5.391042111E+01+
*       -1.819443269E+01               0
GRID*               8511               02.0000000000E+01-6.721701304E+01+
*       -1.509749172E+01               0
GRID*               8512               02.0000000000E+01-6.485684925E+01+
*       -1.329774517E+01               0
GRID*               8513               02.0000000000E+01-6.449332521E+01+
*       -1.628383109E+01               0
GRID*               8514               02.0000000000E+01-6.181729801E+01+
*       -1.746186635E+01               0
GRID*               8515               02.0000000000E+01-5.939865897E+01+
*       -1.569344534E+01               0
GRID*               8516               02.0000000000E+01-3.622228960E+01+
*       9.4312859098E-01               0
GRID*               8517               02.0000000000E+01-3.743438309E+01+
*       1.5809938892E+00               0
GRID*               8518               02.0000000000E+01-3.657788796E+01+
*       2.5598449948E+00               0
GRID*               8519               02.0000000000E+01-3.598258502E+01+
*       -8.484483746E-01               0
GRID*               8520               02.0000000000E+01-3.589843683E+01+
*       -2.382379574E+00               0
GRID*               8521               02.0000000000E+01-3.699463655E+01+
*       -1.569653714E+00               0
GRID*               8522               02.0000000000E+01-3.591157959E+01+
*       8.7769539783E-02               0
GRID*               8523               02.0000000000E+01-3.505508446E+01+
*       1.0666206454E+00               0
GRID*               8524               02.0000000000E+01-3.481537988E+01+
*       -7.249563202E-01               0
GRID*               8525               02.0000000000E+01-3.332349319E+01+
*       3.8775936274E-01               0
GRID*               8526               02.0000000000E+01-3.275793251E+01+
*       1.0567093436E+00               0
GRID*               8527               02.0000000000E+01-3.254671299E+01+
*       1.1717608017E-01               0
GRID*               8528               02.0000000000E+01-3.392832406E+01+
*       -1.702561533E-01               0
GRID*               8529               02.0000000000E+01-3.399932949E+01+
*       -1.106474068E+00               0
GRID*               8530               02.0000000000E+01-3.413954358E+01+
*       7.6927711016E-01               0
GRID*               8531               02.0000000000E+01-3.445025359E+01+
*       1.6246361614E+00               0
GRID*               8532               02.0000000000E+01-3.079883581E+01+
*       -3.102923568E-01               0
GRID*               8533               02.0000000000E+01-3.041297600E+01+
*       1.8030104888E-02               0
GRID*               8534               02.0000000000E+01-3.037811747E+01+
*       -5.504795555E-01               0
GRID*               8535               02.0000000000E+01-3.124752862E+01+
*       -6.837515388E-02               0
GRID*               8536               02.0000000000E+01-3.182125761E+01+
*       1.9557922487E-01               0
GRID*               8537               02.0000000000E+01-3.140742333E+01+
*       5.2217168228E-01               0
GRID*               8538               02.0000000000E+01-3.121267009E+01+
*       -6.368848142E-01               0
GRID*               8539               02.0000000000E+01-3.127438809E+01+
*       -1.240361435E+00               0
GRID*               8540               02.0000000000E+01-3.172308090E+01+
*       -9.984442318E-01               0
GRID*               8541               02.0000000000E+01-3.571139174E+01+
*       -3.472552173E+00               0
GRID*               8542               02.0000000000E+01-3.529031818E+01+
*       -4.872951711E+00               0
GRID*               8543               02.0000000000E+01-3.648941481E+01+
*       -4.503984452E+00               0
GRID*               8544               02.0000000000E+01-3.469934021E+01+
*       -2.751346833E+00               0
GRID*               8545               02.0000000000E+01-3.398630266E+01+
*       -2.076482157E+00               0
GRID*               8546               02.0000000000E+01-3.379925756E+01+
*       -3.166654755E+00               0
GRID*               8547               02.0000000000E+01-3.309924685E+01+
*       -1.521781990E+00               0
GRID*               8548               02.0000000000E+01-3.238681829E+01+
*       -4.733707560E-01               0
GRID*               8549               02.0000000000E+01-3.244853629E+01+
*       -1.076847377E+00               0
GRID*               8550               02.0000000000E+01-3.243550946E+01+
*       -2.046855466E+00               0
GRID*               8551               02.0000000000E+01-3.437669916E+01+
*       -1.194629745E+01               0
GRID*               8552               02.0000000000E+01-3.613982198E+01+
*       -1.320595329E+01               0
GRID*               8553               02.0000000000E+01-3.027596935E+01+
*       -1.030301937E+00               0
GRID*               8554               02.0000000000E+01-3.477286020E+01+
*       -1.033196985E+01               0
GRID*               8555               02.0000000000E+01-3.607070004E+01+
*       -9.883365188E+00               0
GRID*               8556               02.0000000000E+01-3.475073904E+01+
*       -8.951494024E+00               0
GRID*               8557               02.0000000000E+01-3.305673816E+01+
*       -1.101442629E+01               0
GRID*               8558               02.0000000000E+01-3.240021766E+01+
*       -9.874002419E+00               0
GRID*               8559               02.0000000000E+01-3.518390819E+01+
*       -7.925942494E+00               0
GRID*               8560               02.0000000000E+01-3.388606836E+01+
*       -8.374547159E+00               0
GRID*               8561               02.0000000000E+01-3.484393200E+01+
*       -5.806298445E+00               0
GRID*               8562               02.0000000000E+01-3.406590893E+01+
*       -4.774866165E+00               0
GRID*               8563               02.0000000000E+01-3.519378939E+01+
*       -6.626689809E+00               0
GRID*               8564               02.0000000000E+01-3.605846006E+01+
*       -7.203636675E+00               0
GRID*               8565               02.0000000000E+01-3.396938013E+01+
*       -6.528604264E+00               0
GRID*               8566               02.0000000000E+01-3.063736057E+01+
*       -1.526639709E+00               0
GRID*               8567               02.0000000000E+01-3.114777138E+01+
*       -1.888199127E+00               0
GRID*               8568               02.0000000000E+01-3.014935263E+01+
*       -1.678139629E+00               0
GRID*               8569               02.0000000000E+01-3.356795409E+01+
*       -4.002337654E+00               0
GRID*               8570               02.0000000000E+01-3.312156791E+01+
*       -4.935684389E+00               0
GRID*               8571               02.0000000000E+01-3.285491655E+01+
*       -3.327472978E+00               0
GRID*               8572               02.0000000000E+01-3.170449096E+01+
*       -2.312674394E+00               0
GRID*               8573               02.0000000000E+01-3.106746343E+01+
*       -2.598952668E+00               0
GRID*               8574               02.0000000000E+01-3.235520152E+01+
*       -2.757609007E+00               0
GRID*               8575               02.0000000000E+01-3.212389804E+01+
*       -3.593291906E+00               0
GRID*               8576               02.0000000000E+01-3.230663909E+01+
*       -9.000979242E+00               0
GRID*               8577               02.0000000000E+01-3.013395956E+01+
*       -3.223769647E+00               0
GRID*               8578               02.0000000000E+01-3.027774827E+01+
*       -3.760136974E+00               0
GRID*               8579               02.0000000000E+01-2.993211695E+01+
*       -2.118914826E+00               0
GRID*               8580               02.0000000000E+01-3.009789903E+01+
*       -2.631164010E+00               0
GRID*               8581               02.0000000000E+01-3.054680438E+01+
*       -2.767083038E+00               0
GRID*               8582               02.0000000000E+01-3.110352396E+01+
*       -3.191558305E+00               0
GRID*               8583               02.0000000000E+01-3.183407581E+01+
*       -7.914864336E+00               0
GRID*               8584               02.0000000000E+01-3.162601101E+01+
*       -7.040807737E+00               0
GRID*               8585               02.0000000000E+01-3.298033593E+01+
*       -8.313983784E+00               0
GRID*               8586               02.0000000000E+01-3.341350508E+01+
*       -7.288432253E+00               0
GRID*               8587               02.0000000000E+01-3.138827869E+01+
*       -3.650054468E+00               0
GRID*               8588               02.0000000000E+01-3.188799372E+01+
*       -4.219918439E+00               0
GRID*               8589               02.0000000000E+01-3.056250300E+01+
*       -4.218633136E+00               0
GRID*               8590               02.0000000000E+01-3.074651641E+01+
*       -4.822933243E+00               0
GRID*               8591               02.0000000000E+01-3.086761963E+01+
*       -3.818184838E+00               0
GRID*               8592               02.0000000000E+01-3.128239179E+01+
*       -6.221775015E+00               0
GRID*               8593               02.0000000000E+01-3.216415342E+01+
*       -6.408836156E+00               0
GRID*               8594               02.0000000000E+01-3.108059633E+01+
*       -5.479494460E+00               0
GRID*               8595               02.0000000000E+01-3.148645428E+01+
*       -4.933242217E+00               0
GRID*               8596               02.0000000000E+01-3.222207363E+01+
*       -4.876479656E+00               0
GRID*               8597               02.0000000000E+01-3.272002847E+01+
*       -5.649008167E+00               0
GRID*               8598               02.0000000000E+01-3.306364770E+01+
*       -6.468040889E+00               0
GRID*               8599               02.0000000000E+01-4.558851791E+01+
*       -1.923644278E+01               0
GRID*               8600               02.0000000000E+01-4.309585131E+01+
*       -1.702963029E+01               0
GRID*               8601               02.0000000000E+01-4.848903361E+01+
*       -1.767810771E+01               0
GRID*               8602               02.0000000000E+01-5.138807327E+01+
*       -1.636855376E+01               0
GRID*               8603               02.0000000000E+01-5.414180868E+01+
*       -1.507692721E+01               0
GRID*               8604               02.0000000000E+01-4.872042118E+01+
*       -1.456060222E+01               0
GRID*               8605               02.0000000000E+01-5.701831078E+01+
*       -1.388516286E+01               0
GRID*               8606               02.0000000000E+01-5.449596294E+01+
*       -1.205928393E+01               0
GRID*               8607               02.0000000000E+01-5.975281323E+01+
*       -1.267580206E+01               0
GRID*               8608               02.0000000000E+01-6.793681022E+01+
*       -9.173765896E+00               0
GRID*               8609               02.0000000000E+01-7.069296859E+01+
*       -7.940040725E+00               0
GRID*               8610               02.0000000000E+01-6.560248466E+01+
*       -7.397379631E+00               0
GRID*               8611               02.0000000000E+01-6.524621153E+01+
*       -1.033501954E+01               0
GRID*               8612               02.0000000000E+01-6.252252369E+01+
*       -1.152135891E+01               0
GRID*               8613               02.0000000000E+01-6.014217551E+01+
*       -9.713076428E+00               0
GRID*               8614               02.0000000000E+01-9.725781255E+01+
*       7.5742069452E+00               0
GRID*               8615               02.0000000000E+01-9.452388794E+01+
*       6.1164284898E+00               0
GRID*               8616               02.0000000000E+01-9.725781255E+01+
*       1.0574206945E+01               0
GRID*               8617               02.0000000000E+01-9.175311721E+01+
*       4.6163189791E+00               0
GRID*               8618               02.0000000000E+01-8.903328823E+01+
*       3.0712161375E+00               0
GRID*               8619               02.0000000000E+01-9.174485437E+01+
*       7.6483043798E+00               0
GRID*               8620               02.0000000000E+01-8.623854985E+01+
*       1.4386525889E+00               0
GRID*               8621               02.0000000000E+01-8.357449299E+01+
*       -2.090362235E-01               0
GRID*               8622               02.0000000000E+01-8.617934526E+01+
*       4.5156313205E+00               0
GRID*               8623               02.0000000000E+01-7.325529102E+01+
*       -6.711685996E+00               0
GRID*               8624               02.0000000000E+01-7.085540578E+01+
*       -5.007771263E+00               0
GRID*               8625               02.0000000000E+01-8.099783326E+01+
*       -1.993487426E+00               0
GRID*               8626               02.0000000000E+01-7.837977530E+01+
*       -3.678780430E+00               0
GRID*               8627               02.0000000000E+01-8.080794714E+01+
*       1.0986165697E+00               0
GRID*               8628               02.0000000000E+01-7.597299569E+01+
*       -5.225571381E+00               0
GRID*               8629               02.0000000000E+01-7.582450781E+01+
*       -2.232625583E+00               0
GRID*               8630               02.0000000000E+01-9.727967053E+01+
*       1.3581559221E+01               0
GRID*               8631               02.0000000000E+01-9.727967053E+01+
*       1.6581559221E+01               0
GRID*               8632               02.0000000000E+01-9.453748309E+01+
*       1.2155766166E+01               0
GRID*               8633               02.0000000000E+01-9.178844733E+01+
*       1.3723262557E+01               0
GRID*               8634               02.0000000000E+01-9.176658935E+01+
*       1.0715910282E+01               0
GRID*               8635               02.0000000000E+01-8.374111305E+01+
*       1.8462959192E+01               0
GRID*               8636               02.0000000000E+01-8.637606138E+01+
*       1.6892997808E+01               0
GRID*               8637               02.0000000000E+01-8.653892457E+01+
*       1.9865398099E+01               0
GRID*               8638               02.0000000000E+01-8.112779552E+01+
*       2.0049797359E+01               0
GRID*               8639               02.0000000000E+01-8.096493234E+01+
*       1.7077397068E+01               0
GRID*               8640               02.0000000000E+01-8.909571325E+01+
*       1.5289421695E+01               0
GRID*               8641               02.0000000000E+01-9.186660699E+01+
*       1.6729277579E+01               0
GRID*               8642               02.0000000000E+01-8.629790173E+01+
*       1.3886982787E+01               0
GRID*               8643               02.0000000000E+01-9.735574873E+01+
*       2.5540756345E+01               0
GRID*               8644               02.0000000000E+01-9.735574873E+01+
*       2.8540756345E+01               0
GRID*               8645               02.0000000000E+01-9.731596678E+01+
*       2.2564502791E+01               0
GRID*               8646               02.0000000000E+01-9.731596678E+01+
*       1.9564502791E+01               0
GRID*               8647               02.0000000000E+01-9.467171551E+01+
*       2.4105259136E+01               0
GRID*               8648               02.0000000000E+01-9.203178171E+01+
*       2.5659121623E+01               0
GRID*               8649               02.0000000000E+01-9.199199976E+01+
*       2.2682868070E+01               0
GRID*               8650               02.0000000000E+01-9.459563731E+01+
*       1.8146062012E+01               0
GRID*               8651               02.0000000000E+01-9.190290323E+01+
*       1.9712221149E+01               0
GRID*               8652               02.0000000000E+01-8.926296943E+01+
*       2.1266083636E+01               0
GRID*               8653               02.0000000000E+01-8.662802110E+01+
*       2.2836045019E+01               0
GRID*               8654               02.0000000000E+01-5.016247985E+01+
*       5.3325605928E+00               0
GRID*               8655               02.0000000000E+01-5.234984517E+01+
*       3.3587258689E+00               0
GRID*               8656               02.0000000000E+01-5.300076986E+01+
*       6.3383409473E+00               0
GRID*               8657               02.0000000000E+01-3.883975621E+01+
*       2.1697609790E+00               0
GRID*               8658               02.0000000000E+01-4.059776248E+01+
*       2.5259215335E+00               0
GRID*               8659               02.0000000000E+01-3.954798771E+01+
*       3.5538708476E+00               0
GRID*               8660               02.0000000000E+01-3.848415786E+01+
*       5.5304457513E-01               0
GRID*               8661               02.0000000000E+01-3.847409105E+01+
*       -9.655109127E-01               0
GRID*               8662               02.0000000000E+01-3.838994287E+01+
*       -2.499442112E+00               0
GRID*               8663               02.0000000000E+01-3.987946417E+01+
*       -3.767438230E-01               0
GRID*               8664               02.0000000000E+01-4.744626608E+01+
*       3.8519695058E+00               0
GRID*               8665               02.0000000000E+01-4.460787675E+01+
*       2.9050604124E+00               0
GRID*               8666               02.0000000000E+01-4.667316584E+01+
*       1.4060364211E+00               0
GRID*               8667               02.0000000000E+01-4.809719077E+01+
*       6.8315845841E+00               0
GRID*               8668               02.0000000000E+01-4.186215374E+01+
*       8.0046949627E-01               0
GRID*               8669               02.0000000000E+01-4.185208694E+01+
*       -7.180859916E-01               0
GRID*               8670               02.0000000000E+01-4.257038524E+01+
*       2.1845793649E+00               0
GRID*               8671               02.0000000000E+01-4.334348548E+01+
*       4.6305124496E+00               0
GRID*               8672               02.0000000000E+01-5.599699037E+01+
*       6.9750089797E+00               0
GRID*               8673               02.0000000000E+01-5.380962505E+01+
*       8.9488437036E+00               0
GRID*               8674               02.0000000000E+01-5.794941214E+01+
*       5.2974103207E+00               0
GRID*               8675               02.0000000000E+01-5.875826733E+01+
*       7.9079130771E+00               0
GRID*               8676               02.0000000000E+01-6.131574705E+01+
*       8.8470969087E+00               0
GRID*               8677               02.0000000000E+01-6.340632141E+01+
*       7.2047435943E+00               0
GRID*               8678               02.0000000000E+01-6.401137936E+01+
*       9.8215260849E+00               0
GRID*               8679               02.0000000000E+01-5.936332528E+01+
*       1.0524695568E+01               0
GRID*               8680               02.0000000000E+01-6.665417590E+01+
*       1.0903426027E+01               0
GRID*               8681               02.0000000000E+01-6.456360154E+01+
*       1.2545779342E+01               0
GRID*               8682               02.0000000000E+01-6.893900584E+01+
*       9.1828285551E+00               0
GRID*               8683               02.0000000000E+01-6.949122802E+01+
*       1.1907081812E+01               0
GRID*               8684               02.0000000000E+01-7.805507009E+01+
*       1.5634989558E+01               0
GRID*               8685               02.0000000000E+01-8.066838761E+01+
*       1.4048151391E+01               0
GRID*               8686               02.0000000000E+01-7.554090724E+01+
*       1.7343690753E+01               0
GRID*               8687               02.0000000000E+01-7.524436251E+01+
*       1.4314445076E+01               0
GRID*               8688               02.0000000000E+01-7.225312882E+01+
*       1.3104815305E+01               0
GRID*               8689               02.0000000000E+01-6.996829887E+01+
*       1.4825412777E+01               0
GRID*               8690               02.0000000000E+01-7.476729167E+01+
*       1.1396114110E+01               0
GRID*               8691               02.0000000000E+01-8.899581862E+01+
*       9.2158007711E+00               0
GRID*               8692               02.0000000000E+01-8.615360658E+01+
*       1.0749705989E+01               0
GRID*               8693               02.0000000000E+01-8.613187160E+01+
*       7.6821000874E+00               0
GRID*               8694               02.0000000000E+01-8.343395471E+01+
*       1.2353282103E+01               0
GRID*               8695               02.0000000000E+01-8.052409246E+01+
*       1.0910874593E+01               0
GRID*               8696               02.0000000000E+01-8.333713322E+01+
*       6.0495365388E+00               0
GRID*               8697               02.0000000000E+01-8.008662930E+01+
*       7.4601957579E+00               0
GRID*               8698               02.0000000000E+01-8.013410295E+01+
*       4.2937269911E+00               0
GRID*               8699               02.0000000000E+01-7.732106220E+01+
*       9.1550650457E+00               0
GRID*               8700               02.0000000000E+01-7.432982850E+01+
*       7.9454352749E+00               0
GRID*               8701               02.0000000000E+01-7.755744322E+01+
*       2.5092757888E+00               0
GRID*               8702               02.0000000000E+01-7.102972474E+01+
*       7.3599344305E+00               0
GRID*               8703               02.0000000000E+01-6.819267261E+01+
*       6.3562786460E+00               0
GRID*               8704               02.0000000000E+01-7.358349527E+01+
*       5.1188853658E+00               0
GRID*               8705               02.0000000000E+01-7.519566721E+01+
*       3.3336742561E+00               0
GRID*               8706               02.0000000000E+01-7.586951140E+01+
*       1.3856383468E-01               0
GRID*               8707               02.0000000000E+01-7.189556345E+01+
*       2.7481734117E+00               0
GRID*               8708               02.0000000000E+01-3.796226636E+01+
*       -4.116577090E+00               0
GRID*               8709               02.0000000000E+01-3.944172086E+01+
*       -3.512434289E+00               0
GRID*               8710               02.0000000000E+01-3.754119281E+01+
*       -5.516976628E+00               0
GRID*               8711               02.0000000000E+01-3.701607930E+01+
*       -6.669119623E+00               0
GRID*               8712               02.0000000000E+01-3.700619811E+01+
*       -7.968372307E+00               0
GRID*               8713               02.0000000000E+01-3.848893085E+01+
*       -6.281712261E+00               0
GRID*               8714               02.0000000000E+01-6.549852957E+01+
*       5.4417897538E+00               0
GRID*               8715               02.0000000000E+01-6.758924846E+01+
*       3.6188956292E+00               0
GRID*               8716               02.0000000000E+01-6.280289726E+01+
*       4.4673605775E+00               0
GRID*               8717               02.0000000000E+01-6.008293119E+01+
*       3.4877643821E+00               0
GRID*               8718               02.0000000000E+01-6.217513935E+01+
*       1.7248105417E+00               0
GRID*               8719               02.0000000000E+01-5.732165423E+01+
*       2.5548602848E+00               0
GRID*               8720               02.0000000000E+01-5.451824207E+01+
*       1.5493548982E+00               0
GRID*               8721               02.0000000000E+01-5.665176112E+01+
*       -2.602910403E-01               0
GRID*               8722               02.0000000000E+01-5.167995207E+01+
*       5.4357454380E-01               0
GRID*               8723               02.0000000000E+01-4.093335659E+01+
*       -4.800202944E+00               0
GRID*               8724               02.0000000000E+01-3.982974722E+01+
*       -6.551435261E+00               0
GRID*               8725               02.0000000000E+01-4.174905946E+01+
*       -6.222068938E+00               0
GRID*               8726               02.0000000000E+01-4.136103310E+01+
*       -3.183067966E+00               0
GRID*               8727               02.0000000000E+01-4.334372267E+01+
*       -2.005854647E+00               0
GRID*               8728               02.0000000000E+01-4.596483088E+01+
*       -1.353687854E+00               0
GRID*               8729               02.0000000000E+01-4.547377704E+01+
*       -3.818669828E+00               0
GRID*               8730               02.0000000000E+01-4.880322021E+01+
*       -4.067787602E-01               0
GRID*               8731               02.0000000000E+01-5.097161711E+01+
*       -2.216149731E+00               0
GRID*               8732               02.0000000000E+01-7.346273180E+01+
*       -1.408227116E+00               0
GRID*               8733               02.0000000000E+01-7.127533387E+01+
*       9.9515994621E-02               0
GRID*               8734               02.0000000000E+01-7.123033028E+01+
*       -2.271673424E+00               0
GRID*               8735               02.0000000000E+01-6.966316193E+01+
*       1.8847271043E+00               0
GRID*               8736               02.0000000000E+01-6.696901888E+01+
*       9.7023821217E-01               0
GRID*               8737               02.0000000000E+01-6.866800785E+01+
*       -3.500028152E+00               0
GRID*               8738               02.0000000000E+01-6.643546289E+01+
*       -1.800904359E+00               0
GRID*               8739               02.0000000000E+01-6.606053839E+01+
*       -4.537002198E+00               0
GRID*               8740               02.0000000000E+01-6.436154942E+01+
*       -6.673583419E-02               0
GRID*               8741               02.0000000000E+01-6.164158335E+01+
*       -1.046332030E+00               0
GRID*               8742               02.0000000000E+01-3.709603819E+01+
*       -8.967926426E+00               0
GRID*               8743               02.0000000000E+01-3.711815936E+01+
*       -1.034840226E+01               0
GRID*               8744               02.0000000000E+01-3.805365743E+01+
*       -8.433409375E+00               0
GRID*               8745               02.0000000000E+01-3.939447380E+01+
*       -8.703132374E+00               0
GRID*               8746               02.0000000000E+01-3.930463372E+01+
*       -7.703578256E+00               0
GRID*               8747               02.0000000000E+01-4.040287511E+01+
*       -1.533319521E+01               0
GRID*               8748               02.0000000000E+01-3.831112594E+01+
*       -1.381267579E+01               0
GRID*               8749               02.0000000000E+01-4.312840531E+01+
*       -1.417372109E+01               0
GRID*               8750               02.0000000000E+01-4.591782113E+01+
*       -1.253230237E+01               0
GRID*               8751               02.0000000000E+01-4.881686080E+01+
*       -1.122274842E+01               0
GRID*               8752               02.0000000000E+01-4.322484493E+01+
*       -1.083586729E+01               0
GRID*               8753               02.0000000000E+01-3.826412516E+01+
*       -1.187056352E+01               0
GRID*               8754               02.0000000000E+01-3.928946331E+01+
*       -1.095512475E+01               0
GRID*               8755               02.0000000000E+01-4.054043960E+01+
*       -1.022529364E+01               0
GRID*               8756               02.0000000000E+01-4.332985542E+01+
*       -8.583874908E+00               0
GRID*               8757               02.0000000000E+01-6.336993970E+01+
*       -5.698255838E+00               0
GRID*               8758               02.0000000000E+01-6.108356126E+01+
*       -3.906665608E+00               0
GRID*               8759               02.0000000000E+01-6.062550753E+01+
*       -6.767043041E+00               0
GRID*               8760               02.0000000000E+01-5.889715119E+01+
*       -2.115119232E+00               0
GRID*               8761               02.0000000000E+01-5.609373903E+01+
*       -3.120624619E+00               0
GRID*               8762               02.0000000000E+01-5.321233840E+01+
*       -4.186247328E+00               0
GRID*               8763               02.0000000000E+01-5.033560654E+01+
*       -5.136600632E+00               0
GRID*               8764               02.0000000000E+01-5.785579707E+01+
*       -7.921486198E+00               0
GRID*               8765               02.0000000000E+01-5.545772846E+01+
*       -6.041075521E+00               0
GRID*               8766               02.0000000000E+01-5.497439644E+01+
*       -8.987108907E+00               0
GRID*               8767               02.0000000000E+01-5.209789434E+01+
*       -1.017887325E+01               0
GRID*               8768               02.0000000000E+01-4.929529429E+01+
*       -8.150573395E+00               0
GRID*               8769               02.0000000000E+01-4.705457300E+01+
*       -6.180475798E+00               0
GRID*               8770               02.0000000000E+01-4.443346479E+01+
*       -6.832642591E+00               0
GRID*               8771               02.0000000000E+01-3.370096758E+01+
*       2.2013456561E+00               0
GRID*               8772               02.0000000000E+01-3.461650846E+01+
*       2.4986891913E+00               0
GRID*               8773               02.0000000000E+01-3.280358901E+01+
*       1.9051350767E+00               0
GRID*               8774               02.0000000000E+01-3.202680881E+01+
*       1.6345517941E+00               0
GRID*               8775               02.0000000000E+01-3.296984388E+01+
*       2.7791881067E+00               0
GRID*               8776               02.0000000000E+01-3.323210065E+01+
*       3.6028178809E+00               0
GRID*               8777               02.0000000000E+01-3.233472208E+01+
*       3.3066073015E+00               0
GRID*               8778               02.0000000000E+01-3.037193010E+01+
*       5.0654190502E-01               0
GRID*               8779               02.0000000000E+01-3.013794832E+01+
*       1.6239047174E+00               0
GRID*               8780               02.0000000000E+01-3.032128592E+01+
*       1.9729175085E+00               0
GRID*               8781               02.0000000000E+01-3.030586810E+01+
*       1.1627526937E+00               0
GRID*               8782               02.0000000000E+01-3.076763234E+01+
*       9.1442809221E-01               0
GRID*               8783               02.0000000000E+01-3.134136133E+01+
*       1.1783824710E+00               0
GRID*               8784               02.0000000000E+01-3.138701783E+01+
*       2.0268082041E+00               0
GRID*               8785               02.0000000000E+01-3.185876590E+01+
*       3.9437704284E+00               0
GRID*               8786               02.0000000000E+01-3.205899713E+01+
*       4.6111531017E+00               0
GRID*               8787               02.0000000000E+01-3.132078419E+01+
*       4.4246864544E+00               0
GRID*               8788               02.0000000000E+01-3.159650913E+01+
*       3.1201406541E+00               0
GRID*               8789               02.0000000000E+01-3.138242610E+01+
*       2.5994720426E+00               0
GRID*               8790               02.0000000000E+01-3.069697862E+01+
*       2.1433027195E+00               0
GRID*               8791               02.0000000000E+01-3.090646993E+01+
*       3.2366351695E+00               0
GRID*               8792               02.0000000000E+01-3.031669420E+01+
*       2.5455813471E+00               0
GRID*               8793               02.0000000000E+01-3.021412811E+01+
*       3.0420773921E+00               0
GRID*               8794               02.0000000000E+01-3.083319654E+01+
*       4.8775864593E+00               0
GRID*               8795               02.0000000000E+01-3.063296531E+01+
*       4.2102037860E+00               0
GRID*               8796               02.0000000000E+01-3.099789767E+01+
*       5.5321153585E+00               0
GRID*               8797               02.0000000000E+01-3.042821113E+01+
*       3.5627460036E+00               0
GRID*               8798               02.0000000000E+01-3.402494418E+01+
*       3.9262747895E+00               0
GRID*               8799               02.0000000000E+01-3.338982238E+01+
*       4.4536939843E+00               0
GRID*               8800               02.0000000000E+01-3.464756387E+01+
*       3.3860239278E+00               0
GRID*               8801               02.0000000000E+01-3.539684988E+01+
*       2.8093144330E+00               0
GRID*               8802               02.0000000000E+01-3.480528561E+01+
*       4.2369000312E+00               0
GRID*               8803               02.0000000000E+01-3.584609156E+01+
*       4.5941897194E+00               0
GRID*               8804               02.0000000000E+01-3.522347187E+01+
*       5.1344405811E+00               0
GRID*               8805               02.0000000000E+01-4.171423947E+01+
*       5.4121508671E+00               0
GRID*               8806               02.0000000000E+01-4.375173098E+01+
*       6.1326319146E+00               0
GRID*               8807               02.0000000000E+01-4.021326426E+01+
*       5.0291932153E+00               0
GRID*               8808               02.0000000000E+01-3.845525799E+01+
*       4.6730326608E+00               0
GRID*               8809               02.0000000000E+01-4.062150975E+01+
*       6.5313126803E+00               0
GRID*               8810               02.0000000000E+01-3.660894337E+01+
*       3.4471797313E+00               0
GRID*               8811               02.0000000000E+01-3.702712964E+01+
*       4.3447202812E+00               0
GRID*               8812               02.0000000000E+01-3.769240619E+01+
*       5.8200426489E+00               0
GRID*               8813               02.0000000000E+01-3.969485112E+01+
*       7.6973642066E+00               0
GRID*               8814               02.0000000000E+01-4.119582634E+01+
*       8.0803218584E+00               0
GRID*               8815               02.0000000000E+01-3.806611139E+01+
*       7.1265794579E+00               0
GRID*               8816               02.0000000000E+01-3.663798303E+01+
*       6.7982670783E+00               0
GRID*               8817               02.0000000000E+01-3.173718288E+01+
*       5.8226079597E+00               0
GRID*               8818               02.0000000000E+01-3.218357314E+01+
*       5.2747119909E+00               0
GRID*               8819               02.0000000000E+01-3.239974061E+01+
*       6.0052508229E+00               0
GRID*               8820               02.0000000000E+01-3.272155486E+01+
*       4.7937959650E+00               0
GRID*               8821               02.0000000000E+01-3.351439839E+01+
*       5.1172528735E+00               0
GRID*               8822               02.0000000000E+01-3.522192584E+01+
*       6.2125598212E+00               0
GRID*               8823               02.0000000000E+01-3.418111988E+01+
*       5.8552701330E+00               0
GRID*               8824               02.0000000000E+01-3.351285235E+01+
*       6.1953721136E+00               0
GRID*               8825               02.0000000000E+01-9.741619703E+01+
*       3.7405916209E+01               0
GRID*               8826               02.0000000000E+01-8.695303882E+01+
*       3.1354001460E+01               0
GRID*               8827               02.0000000000E+01-8.956851229E+01+
*       3.2851214607E+01               0
GRID*               8828               02.0000000000E+01-8.429081184E+01+
*       2.9918714220E+01               0
GRID*               8829               02.0000000000E+01-8.684233028E+01+
*       2.8536888730E+01               0
GRID*               8830               02.0000000000E+01-8.676608463E+01+
*       2.5669166023E+01               0
GRID*               8831               02.0000000000E+01-8.404203977E+01+
*       2.4268480486E+01               0
GRID*               8832               02.0000000000E+01-8.942831161E+01+
*       2.7104453263E+01               0
GRID*               8833               02.0000000000E+01-9.210802736E+01+
*       2.8526844330E+01               0
GRID*               8834               02.0000000000E+01-9.738786492E+01+
*       3.4465910060E+01               0
GRID*               8835               02.0000000000E+01-9.480406195E+01+
*       3.5871826269E+01               0
GRID*               8836               02.0000000000E+01-9.738786492E+01+
*       3.1465910060E+01               0
GRID*               8837               02.0000000000E+01-9.474361366E+01+
*       3.0006666405E+01               0
GRID*               8838               02.0000000000E+01-9.220409858E+01+
*       3.4331036683E+01               0
GRID*               8839               02.0000000000E+01-9.214014355E+01+
*       3.1451998045E+01               0
GRID*               8840               02.0000000000E+01-8.166463784E+01+
*       2.8453300177E+01               0
GRID*               8841               02.0000000000E+01-8.149198255E+01+
*       2.5679995726E+01               0
GRID*               8842               02.0000000000E+01-7.897651710E+01+
*       2.7031694413E+01               0
GRID*               8843               02.0000000000E+01-8.135391902E+01+
*       2.2846874722E+01               0
GRID*               8844               02.0000000000E+01-7.857773831E+01+
*       2.1461312599E+01               0
GRID*               8845               02.0000000000E+01-7.587894961E+01+
*       2.0082401395E+01               0
GRID*               8846               02.0000000000E+01-7.306824204E+01+
*       1.8761856912E+01               0
GRID*               8847               02.0000000000E+01-7.610507311E+01+
*       2.2879478758E+01               0
GRID*               8848               02.0000000000E+01-7.634974239E+01+
*       2.5596588459E+01               0
GRID*               8849               02.0000000000E+01-7.365095369E+01+
*       2.4217677254E+01               0
GRID*               8850               02.0000000000E+01-7.039743700E+01+
*       1.7450219660E+01               0
GRID*               8851               02.0000000000E+01-6.763553620E+01+
*       1.6252486167E+01               0
GRID*               8852               02.0000000000E+01-7.073547937E+01+
*       2.0188930302E+01               0
GRID*               8853               02.0000000000E+01-7.104499144E+01+
*       2.2824356144E+01               0
GRID*               8854               02.0000000000E+01-6.837418640E+01+
*       2.1512718892E+01               0
GRID*               8855               02.0000000000E+01-4.357474737E+01+
*       8.5895625800E+00               0
GRID*               8856               02.0000000000E+01-4.520399339E+01+
*       7.8079241625E+00               0
GRID*               8857               02.0000000000E+01-4.792020716E+01+
*       9.2885152495E+00               0
GRID*               8858               02.0000000000E+01-6.505222747E+01+
*       1.5028653142E+01               0
GRID*               8859               02.0000000000E+01-6.240943093E+01+
*       1.3946753199E+01               0
GRID*               8860               02.0000000000E+01-6.548136560E+01+
*       1.7653460025E+01               0
GRID*               8861               02.0000000000E+01-6.582470483E+01+
*       2.0171111370E+01               0
GRID*               8862               02.0000000000E+01-6.324139610E+01+
*       1.8947278345E+01               0
GRID*               8863               02.0000000000E+01-5.240143210E+01+
*       1.0414798761E+01               0
GRID*               8864               02.0000000000E+01-5.539765261E+01+
*       1.1051466794E+01               0
GRID*               8865               02.0000000000E+01-5.037498641E+01+
*       1.0940867948E+01               0
GRID*               8866               02.0000000000E+01-5.196301397E+01+
*       1.3043491038E+01               0
GRID*               8867               02.0000000000E+01-5.998874468E+01+
*       1.2838018423E+01               0
GRID*               8868               02.0000000000E+01-6.047737062E+01+
*       1.5320892223E+01               0
GRID*               8869               02.0000000000E+01-5.743126497E+01+
*       1.1898834591E+01               0
GRID*               8870               02.0000000000E+01-5.602307201E+01+
*       1.3364789649E+01               0
GRID*               8871               02.0000000000E+01-5.408347656E+01+
*       1.4468915127E+01               0
GRID*               8872               02.0000000000E+01-5.611708891E+01+
*       1.5316282925E+01               0
GRID*               8873               02.0000000000E+01-6.080012261E+01+
*       1.7662096585E+01               0
GRID*               8874               02.0000000000E+01-5.837943635E+01+
*       1.6553361809E+01               0
GRID*               8875               02.0000000000E+01-1.000000000E+02+
*       1.4400000000E+02               0
GRID*               8876               02.0000000000E+01-1.000000000E+02+
*       1.3800000000E+02               0
GRID*               8877               02.0000000000E+01-1.000000000E+02+
*       1.3200000000E+02               0
GRID*               8878               02.0000000000E+01-1.000000000E+02+
*       1.2600000000E+02               0
GRID*               8879               02.0000000000E+01-1.000000000E+02+
*       1.2000000000E+02               0
GRID*               8880               02.0000000000E+01-1.000000000E+02+
*       1.1400000000E+02               0
GRID*               8881               02.0000000000E+01-1.000000000E+02+
*       1.0800000000E+02               0
GRID*               8882               02.0000000000E+01-1.000000000E+02+
*       1.0200000000E+02               0
GRID*               8883               02.0000000000E+01-1.000000000E+02+
*       9.6000000000E+01               0
GRID*               8884               02.0000000000E+01-1.000000000E+02+
*       9.0000000000E+01               0
GRID*               8885               02.0000000000E+01-1.000000000E+02+
*       8.4000000000E+01               0
GRID*               8886               02.0000000000E+01-1.000000000E+02+
*       7.8000000000E+01               0
GRID*               8887               02.0000000000E+01-1.000000000E+02+
*       7.2000000000E+01               0
GRID*               8888               02.0000000000E+01-1.000000000E+02+
*       6.6000000000E+01               0
GRID*               8889               02.0000000000E+01-1.000000000E+02+
*       6.0000000000E+01               0
GRID*               8890               02.0000000000E+01-1.000000000E+02+
*       5.4000000000E+01               0
GRID*               8891               02.0000000000E+01-1.000000000E+02+
*       4.8000000000E+01               0
GRID*               8892               02.0000000000E+01-1.000000000E+02+
*       4.2000000000E+01               0
GRID*               8893               02.0000000000E+01-1.000000000E+02+
*       3.6000000000E+01               0
GRID*               8894               02.0000000000E+01-1.000000000E+02+
*       3.0000000000E+01               0
GRID*               8895               02.0000000000E+01-1.000000000E+02+
*       2.4000000000E+01               0
GRID*               8896               02.0000000000E+01-1.000000000E+02+
*       1.8000000000E+01               0
GRID*               8897               02.0000000000E+01-1.000000000E+02+
*       1.2000000000E+01               0
GRID*               8898               02.0000000000E+01-1.000000000E+02+
*       6.0000000000E+00               0
GRID*               8899               02.0000000000E+01-1.000000000E+02+
*       0.0000000000E+00               0
GRID*               8900               02.0000000000E+01-1.000000000E+02+
*       -6.000000000E+00               0
GRID*               8901               02.0000000000E+01-1.000000000E+02+
*       -1.200000000E+01               0
GRID*               8902               02.0000000000E+01-1.000000000E+02+
*       -1.800000000E+01               0
GRID*               8903               02.0000000000E+01-1.000000000E+02+
*       -2.400000000E+01               0
GRID*               8904               02.0000000000E+01-1.000000000E+02+
*       -3.000000000E+01               0
GRID*               8905               02.0000000000E+01-1.000000000E+02+
*       -3.600000000E+01               0
GRID*               8906               02.0000000000E+01-1.000000000E+02+
*       -4.200000000E+01               0
GRID*               8907               02.0000000000E+01-1.000000000E+02+
*       -4.800000000E+01               0
GRID*               8908               02.0000000000E+01-1.000000000E+02+
*       -5.400000000E+01               0
GRID*               8909               02.0000000000E+01-1.000000000E+02+
*       -6.000000000E+01               0
GRID*               8910               02.0000000000E+01-1.000000000E+02+
*       -6.600000000E+01               0
GRID*               8911               02.0000000000E+01-1.000000000E+02+
*       -7.200000000E+01               0
GRID*               8912               02.0000000000E+01-1.000000000E+02+
*       -7.800000000E+01               0
GRID*               8913               02.0000000000E+01-1.000000000E+02+
*       -8.400000000E+01               0
GRID*               8914               02.0000000000E+01-1.000000000E+02+
*       -9.000000000E+01               0
GRID*               8915               02.0000000000E+01-1.000000000E+02+
*       -9.600000000E+01               0
GRID*               8916               02.0000000000E+01-1.000000000E+02+
*       -1.020000000E+02               0
GRID*               8917               02.0000000000E+01-1.000000000E+02+
*       -1.080000000E+02               0
GRID*               8918               02.0000000000E+01-1.000000000E+02+
*       -1.140000000E+02               0
GRID*               8919               02.0000000000E+01-1.000000000E+02+
*       -1.200000000E+02               0
GRID*               8920               02.0000000000E+01-1.000000000E+02+
*       -1.260000000E+02               0
GRID*               8921               02.0000000000E+01-1.000000000E+02+
*       -1.320000000E+02               0
GRID*               8922               02.0000000000E+01-1.000000000E+02+
*       -1.380000000E+02               0
GRID*               8923               02.0000000000E+01-1.000000000E+02+
*       -1.440000000E+02               0
GRID*               8924               02.0000000000E+01-1.000000000E+02+
*       4.5000000000E+01               0
GRID*               8925               02.0000000000E+01-1.000000000E+02+
*       5.1000000000E+01               0
GRID*               8926               02.0000000000E+01-1.000000000E+02+
*       5.7000000000E+01               0
GRID*               8927               02.0000000000E+01-1.000000000E+02+
*       6.9000000000E+01               0
GRID*               8928               02.0000000000E+01-1.000000000E+02+
*       6.3000000000E+01               0
GRID*               8929               02.0000000000E+01-1.000000000E+02+
*       7.5000000000E+01               0
GRID*               8930               02.0000000000E+01-1.000000000E+02+
*       8.1000000000E+01               0
GRID*               8931               02.0000000000E+01-1.000000000E+02+
*       8.7000000000E+01               0
GRID*               8932               02.0000000000E+01-1.000000000E+02+
*       9.3000000000E+01               0
GRID*               8933               02.0000000000E+01-1.000000000E+02+
*       9.9000000000E+01               0
GRID*               8934               02.0000000000E+01-1.000000000E+02+
*       1.0500000000E+02               0
GRID*               8935               02.0000000000E+01-1.000000000E+02+
*       1.1100000000E+02               0
GRID*               8936               02.0000000000E+01-1.000000000E+02+
*       1.1700000000E+02               0
GRID*               8937               02.0000000000E+01-1.000000000E+02+
*       1.2900000000E+02               0
GRID*               8938               02.0000000000E+01-1.000000000E+02+
*       1.2300000000E+02               0
GRID*               8939               02.0000000000E+01-1.000000000E+02+
*       1.3500000000E+02               0
GRID*               8940               02.0000000000E+01-1.000000000E+02+
*       1.4100000000E+02               0
GRID*               8941               02.0000000000E+01-1.000000000E+02+
*       1.4700000000E+02               0
GRID*               8942               02.0000000000E+01-1.000000000E+02+
*       -6.300000000E+01               0
GRID*               8943               02.0000000000E+01-1.000000000E+02+
*       -7.500000000E+01               0
GRID*               8944               02.0000000000E+01-1.000000000E+02+
*       -6.900000000E+01               0
GRID*               8945               02.0000000000E+01-1.000000000E+02+
*       -8.100000000E+01               0
GRID*               8946               02.0000000000E+01-1.000000000E+02+
*       -8.700000000E+01               0
GRID*               8947               02.0000000000E+01-1.000000000E+02+
*       -9.300000000E+01               0
GRID*               8948               02.0000000000E+01-1.000000000E+02+
*       -1.050000000E+02               0
GRID*               8949               02.0000000000E+01-1.000000000E+02+
*       -9.900000000E+01               0
GRID*               8950               02.0000000000E+01-1.000000000E+02+
*       -1.110000000E+02               0
GRID*               8951               02.0000000000E+01-1.000000000E+02+
*       -1.170000000E+02               0
GRID*               8952               02.0000000000E+01-1.000000000E+02+
*       -1.230000000E+02               0
GRID*               8953               02.0000000000E+01-1.000000000E+02+
*       -1.290000000E+02               0
GRID*               8954               02.0000000000E+01-1.000000000E+02+
*       -1.470000000E+02               0
GRID*               8955               02.0000000000E+01-1.000000000E+02+
*       -1.410000000E+02               0
GRID*               8956               02.0000000000E+01-1.000000000E+02+
*       -1.350000000E+02               0
GRID*               8957               02.0000000000E+01-1.000000000E+02+
*       -5.700000000E+01               0
GRID*               8958               02.0000000000E+01-1.000000000E+02+
*       -5.100000000E+01               0
GRID*               8959               02.0000000000E+01-1.000000000E+02+
*       -4.500000000E+01               0
GRID*               8960               02.0000000000E+01-1.000000000E+02+
*       -3.900000000E+01               0
GRID*               8961               02.0000000000E+01-1.000000000E+02+
*       -3.300000000E+01               0
GRID*               8962               02.0000000000E+01-1.000000000E+02+
*       -2.700000000E+01               0
GRID*               8963               02.0000000000E+01-1.000000000E+02+
*       -2.100000000E+01               0
GRID*               8964               02.0000000000E+01-1.000000000E+02+
*       -1.500000000E+01               0
GRID*               8965               02.0000000000E+01-1.000000000E+02+
*       -9.000000000E+00               0
GRID*               8966               02.0000000000E+01-1.000000000E+02+
*       -3.000000000E+00               0
GRID*               8967               02.0000000000E+01-1.000000000E+02+
*       3.0000000000E+00               0
GRID*               8968               02.0000000000E+01-1.000000000E+02+
*       9.0000000000E+00               0
GRID*               8969               02.0000000000E+01-1.000000000E+02+
*       1.5000000000E+01               0
GRID*               8970               02.0000000000E+01-1.000000000E+02+
*       2.7000000000E+01               0
GRID*               8971               02.0000000000E+01-1.000000000E+02+
*       2.1000000000E+01               0
GRID*               8972               02.0000000000E+01-1.000000000E+02+
*       3.9000000000E+01               0
GRID*               8973               02.0000000000E+01-1.000000000E+02+
*       3.3000000000E+01               0
GRID*               8974               02.0000000000E+01-9.393939394E+01+
*       -1.500000000E+02               0
GRID*               8975               02.0000000000E+01-8.787878788E+01+
*       -1.500000000E+02               0
GRID*               8976               02.0000000000E+01-8.181818182E+01+
*       -1.500000000E+02               0
GRID*               8977               02.0000000000E+01-7.575757576E+01+
*       -1.500000000E+02               0
GRID*               8978               02.0000000000E+01-6.969696970E+01+
*       -1.500000000E+02               0
GRID*               8979               02.0000000000E+01-6.363636364E+01+
*       -1.500000000E+02               0
GRID*               8980               02.0000000000E+01-5.757575758E+01+
*       -1.500000000E+02               0
GRID*               8981               02.0000000000E+01-5.151515152E+01+
*       -1.500000000E+02               0
GRID*               8982               02.0000000000E+01-4.545454545E+01+
*       -1.500000000E+02               0
GRID*               8983               02.0000000000E+01-3.939393939E+01+
*       -1.500000000E+02               0
GRID*               8984               02.0000000000E+01-3.333333333E+01+
*       -1.500000000E+02               0
GRID*               8985               02.0000000000E+01-2.727272727E+01+
*       -1.500000000E+02               0
GRID*               8986               02.0000000000E+01-2.121212121E+01+
*       -1.500000000E+02               0
GRID*               8987               02.0000000000E+01-1.515151515E+01+
*       -1.500000000E+02               0
GRID*               8988               02.0000000000E+01-9.090909091E+00+
*       -1.500000000E+02               0
GRID*               8989               02.0000000000E+01-3.030303030E+00+
*       -1.500000000E+02               0
GRID*               8990               02.0000000000E+013.0303030303E+00+
*       -1.500000000E+02               0
GRID*               8991               02.0000000000E+019.0909090909E+00+
*       -1.500000000E+02               0
GRID*               8992               02.0000000000E+011.5151515152E+01+
*       -1.500000000E+02               0
GRID*               8993               02.0000000000E+012.1212121212E+01+
*       -1.500000000E+02               0
GRID*               8994               02.0000000000E+012.7272727273E+01+
*       -1.500000000E+02               0
GRID*               8995               02.0000000000E+013.3333333333E+01+
*       -1.500000000E+02               0
GRID*               8996               02.0000000000E+013.9393939394E+01+
*       -1.500000000E+02               0
GRID*               8997               02.0000000000E+014.5454545455E+01+
*       -1.500000000E+02               0
GRID*               8998               02.0000000000E+015.1515151515E+01+
*       -1.500000000E+02               0
GRID*               8999               02.0000000000E+015.7575757576E+01+
*       -1.500000000E+02               0
GRID*               9000               02.0000000000E+016.3636363636E+01+
*       -1.500000000E+02               0
GRID*               9001               02.0000000000E+016.9696969697E+01+
*       -1.500000000E+02               0
GRID*               9002               02.0000000000E+017.5757575758E+01+
*       -1.500000000E+02               0
GRID*               9003               02.0000000000E+018.1818181818E+01+
*       -1.500000000E+02               0
GRID*               9004               02.0000000000E+018.7878787879E+01+
*       -1.500000000E+02               0
GRID*               9005               02.0000000000E+019.3939393939E+01+
*       -1.500000000E+02               0
GRID*               9006               02.0000000000E+01-6.666666667E+01+
*       -1.500000000E+02               0
GRID*               9007               02.0000000000E+01-6.060606061E+01+
*       -1.500000000E+02               0
GRID*               9008               02.0000000000E+01-4.848484848E+01+
*       -1.500000000E+02               0
GRID*               9009               02.0000000000E+01-5.454545455E+01+
*       -1.500000000E+02               0
GRID*               9010               02.0000000000E+01-4.242424242E+01+
*       -1.500000000E+02               0
GRID*               9011               02.0000000000E+01-3.030303030E+01+
*       -1.500000000E+02               0
GRID*               9012               02.0000000000E+01-3.636363636E+01+
*       -1.500000000E+02               0
GRID*               9013               02.0000000000E+01-6.060606061E+00+
*       -1.500000000E+02               0
GRID*               9014               02.0000000000E+01-2.424242424E+01+
*       -1.500000000E+02               0
GRID*               9015               02.0000000000E+01-1.212121212E+01+
*       -1.500000000E+02               0
GRID*               9016               02.0000000000E+01-1.818181818E+01+
*       -1.500000000E+02               0
GRID*               9017               02.0000000000E+016.0606060606E+00+
*       -1.500000000E+02               0
GRID*               9018               02.0000000000E+011.2121212121E+01+
*       -1.500000000E+02               0
GRID*               9019               02.0000000000E+011.8181818182E+01+
*       -1.500000000E+02               0
GRID*               9020               02.0000000000E+010.0000000000E+00+
*       -1.500000000E+02               0
GRID*               9021               02.0000000000E+014.2424242424E+01+
*       -1.500000000E+02               0
GRID*               9022               02.0000000000E+014.8484848485E+01+
*       -1.500000000E+02               0
GRID*               9023               02.0000000000E+015.4545454545E+01+
*       -1.500000000E+02               0
GRID*               9024               02.0000000000E+013.0303030303E+01+
*       -1.500000000E+02               0
GRID*               9025               02.0000000000E+013.6363636364E+01+
*       -1.500000000E+02               0
GRID*               9026               02.0000000000E+012.4242424242E+01+
*       -1.500000000E+02               0
GRID*               9027               02.0000000000E+016.0606060606E+01+
*       -1.500000000E+02               0
GRID*               9028               02.0000000000E+016.6666666667E+01+
*       -1.500000000E+02               0
GRID*               9029               02.0000000000E+017.2727272727E+01+
*       -1.500000000E+02               0
GRID*               9030               02.0000000000E+017.8787878788E+01+
*       -1.500000000E+02               0
GRID*               9031               02.0000000000E+018.4848484848E+01+
*       -1.500000000E+02               0
GRID*               9032               02.0000000000E+019.0909090909E+01+
*       -1.500000000E+02               0
GRID*               9033               02.0000000000E+019.6969696970E+01+
*       -1.500000000E+02               0
GRID*               9034               02.0000000000E+01-8.484848485E+01+
*       -1.500000000E+02               0
GRID*               9035               02.0000000000E+01-7.878787879E+01+
*       -1.500000000E+02               0
GRID*               9036               02.0000000000E+01-7.272727273E+01+
*       -1.500000000E+02               0
GRID*               9037               02.0000000000E+01-9.090909091E+01+
*       -1.500000000E+02               0
GRID*               9038               02.0000000000E+01-9.696969697E+01+
*       -1.500000000E+02               0
GRID*               9039               02.0000000000E+019.3939393939E+01+
*       1.5000000000E+02               0
GRID*               9040               02.0000000000E+018.7878787879E+01+
*       1.5000000000E+02               0
GRID*               9041               02.0000000000E+018.1818181818E+01+
*       1.5000000000E+02               0
GRID*               9042               02.0000000000E+017.5757575758E+01+
*       1.5000000000E+02               0
GRID*               9043               02.0000000000E+016.9696969697E+01+
*       1.5000000000E+02               0
GRID*               9044               02.0000000000E+016.3636363636E+01+
*       1.5000000000E+02               0
GRID*               9045               02.0000000000E+015.7575757576E+01+
*       1.5000000000E+02               0
GRID*               9046               02.0000000000E+015.1515151515E+01+
*       1.5000000000E+02               0
GRID*               9047               02.0000000000E+014.5454545455E+01+
*       1.5000000000E+02               0
GRID*               9048               02.0000000000E+013.9393939394E+01+
*       1.5000000000E+02               0
GRID*               9049               02.0000000000E+013.3333333333E+01+
*       1.5000000000E+02               0
GRID*               9050               02.0000000000E+012.7272727273E+01+
*       1.5000000000E+02               0
GRID*               9051               02.0000000000E+012.1212121212E+01+
*       1.5000000000E+02               0
GRID*               9052               02.0000000000E+011.5151515152E+01+
*       1.5000000000E+02               0
GRID*               9053               02.0000000000E+019.0909090909E+00+
*       1.5000000000E+02               0
GRID*               9054               02.0000000000E+013.0303030303E+00+
*       1.5000000000E+02               0
GRID*               9055               02.0000000000E+01-3.030303030E+00+
*       1.5000000000E+02               0
GRID*               9056               02.0000000000E+01-9.090909091E+00+
*       1.5000000000E+02               0
GRID*               9057               02.0000000000E+01-1.515151515E+01+
*       1.5000000000E+02               0
GRID*               9058               02.0000000000E+01-2.121212121E+01+
*       1.5000000000E+02               0
GRID*               9059               02.0000000000E+01-2.727272727E+01+
*       1.5000000000E+02               0
GRID*               9060               02.0000000000E+01-3.333333333E+01+
*       1.5000000000E+02               0
GRID*               9061               02.0000000000E+01-3.939393939E+01+
*       1.5000000000E+02               0
GRID*               9062               02.0000000000E+01-4.545454545E+01+
*       1.5000000000E+02               0
GRID*               9063               02.0000000000E+01-5.151515152E+01+
*       1.5000000000E+02               0
GRID*               9064               02.0000000000E+01-5.757575758E+01+
*       1.5000000000E+02               0
GRID*               9065               02.0000000000E+01-6.363636364E+01+
*       1.5000000000E+02               0
GRID*               9066               02.0000000000E+01-6.969696970E+01+
*       1.5000000000E+02               0
GRID*               9067               02.0000000000E+01-7.575757576E+01+
*       1.5000000000E+02               0
GRID*               9068               02.0000000000E+01-8.181818182E+01+
*       1.5000000000E+02               0
GRID*               9069               02.0000000000E+01-8.787878788E+01+
*       1.5000000000E+02               0
GRID*               9070               02.0000000000E+01-9.393939394E+01+
*       1.5000000000E+02               0
GRID*               9071               02.0000000000E+01-9.090909091E+01+
*       1.5000000000E+02               0
GRID*               9072               02.0000000000E+01-8.484848485E+01+
*       1.5000000000E+02               0
GRID*               9073               02.0000000000E+01-7.878787879E+01+
*       1.5000000000E+02               0
GRID*               9074               02.0000000000E+01-7.272727273E+01+
*       1.5000000000E+02               0
GRID*               9075               02.0000000000E+01-9.696969697E+01+
*       1.5000000000E+02               0
GRID*               9076               02.0000000000E+01-3.030303030E+01+
*       1.5000000000E+02               0
GRID*               9077               02.0000000000E+01-1.818181818E+01+
*       1.5000000000E+02               0
GRID*               9078               02.0000000000E+01-2.424242424E+01+
*       1.5000000000E+02               0
GRID*               9079               02.0000000000E+010.0000000000E+00+
*       1.5000000000E+02               0
GRID*               9080               02.0000000000E+01-1.212121212E+01+
*       1.5000000000E+02               0
GRID*               9081               02.0000000000E+01-6.060606061E+00+
*       1.5000000000E+02               0
GRID*               9082               02.0000000000E+015.4545454545E+01+
*       1.5000000000E+02               0
GRID*               9083               02.0000000000E+013.0303030303E+01+
*       1.5000000000E+02               0
GRID*               9084               02.0000000000E+013.6363636364E+01+
*       1.5000000000E+02               0
GRID*               9085               02.0000000000E+014.8484848485E+01+
*       1.5000000000E+02               0
GRID*               9086               02.0000000000E+014.2424242424E+01+
*       1.5000000000E+02               0
GRID*               9087               02.0000000000E+011.2121212121E+01+
*       1.5000000000E+02               0
GRID*               9088               02.0000000000E+012.4242424242E+01+
*       1.5000000000E+02               0
GRID*               9089               02.0000000000E+011.8181818182E+01+
*       1.5000000000E+02               0
GRID*               9090               02.0000000000E+016.0606060606E+00+
*       1.5000000000E+02               0
GRID*               9091               02.0000000000E+01-5.454545455E+01+
*       1.5000000000E+02               0
GRID*               9092               02.0000000000E+01-6.060606061E+01+
*       1.5000000000E+02               0
GRID*               9093               02.0000000000E+01-6.666666667E+01+
*       1.5000000000E+02               0
GRID*               9094               02.0000000000E+01-4.242424242E+01+
*       1.5000000000E+02               0
GRID*               9095               02.0000000000E+01-4.848484848E+01+
*       1.5000000000E+02               0
GRID*               9096               02.0000000000E+01-3.636363636E+01+
*       1.5000000000E+02               0
GRID*               9097               02.0000000000E+016.0606060606E+01+
*       1.5000000000E+02               0
GRID*               9098               02.0000000000E+016.6666666667E+01+
*       1.5000000000E+02               0
GRID*               9099               02.0000000000E+017.8787878788E+01+
*       1.5000000000E+02               0
GRID*               9100               02.0000000000E+017.2727272727E+01+
*       1.5000000000E+02               0
GRID*               9101               02.0000000000E+018.4848484848E+01+
*       1.5000000000E+02               0
GRID*               9102               02.0000000000E+019.0909090909E+01+
*       1.5000000000E+02               0
GRID*               9103               02.0000000000E+019.6969696970E+01+
*       1.5000000000E+02               0
GRID*               9104               02.0000000000E+011.0000000000E+02+
*       -1.440000000E+02               0
GRID*               9105               02.0000000000E+011.0000000000E+02+
*       -1.380000000E+02               0
GRID*               9106               02.0000000000E+011.0000000000E+02+
*       -1.320000000E+02               0
GRID*               9107               02.0000000000E+011.0000000000E+02+
*       -1.260000000E+02               0
GRID*               9108               02.0000000000E+011.0000000000E+02+
*       -1.200000000E+02               0
GRID*               9109               02.0000000000E+011.0000000000E+02+
*       -1.140000000E+02               0
GRID*               9110               02.0000000000E+011.0000000000E+02+
*       -1.080000000E+02               0
GRID*               9111               02.0000000000E+011.0000000000E+02+
*       -1.020000000E+02               0
GRID*               9112               02.0000000000E+011.0000000000E+02+
*       -9.600000000E+01               0
GRID*               9113               02.0000000000E+011.0000000000E+02+
*       -9.000000000E+01               0
GRID*               9114               02.0000000000E+011.0000000000E+02+
*       -8.400000000E+01               0
GRID*               9115               02.0000000000E+011.0000000000E+02+
*       -7.800000000E+01               0
GRID*               9116               02.0000000000E+011.0000000000E+02+
*       -7.200000000E+01               0
GRID*               9117               02.0000000000E+011.0000000000E+02+
*       -6.600000000E+01               0
GRID*               9118               02.0000000000E+011.0000000000E+02+
*       -6.000000000E+01               0
GRID*               9119               02.0000000000E+011.0000000000E+02+
*       -5.400000000E+01               0
GRID*               9120               02.0000000000E+011.0000000000E+02+
*       -4.800000000E+01               0
GRID*               9121               02.0000000000E+011.0000000000E+02+
*       -4.200000000E+01               0
GRID*               9122               02.0000000000E+011.0000000000E+02+
*       -3.600000000E+01               0
GRID*               9123               02.0000000000E+011.0000000000E+02+
*       -3.000000000E+01               0
GRID*               9124               02.0000000000E+011.0000000000E+02+
*       -2.400000000E+01               0
GRID*               9125               02.0000000000E+011.0000000000E+02+
*       -1.800000000E+01               0
GRID*               9126               02.0000000000E+011.0000000000E+02+
*       -1.200000000E+01               0
GRID*               9127               02.0000000000E+011.0000000000E+02+
*       -6.000000000E+00               0
GRID*               9128               02.0000000000E+011.0000000000E+02+
*       0.0000000000E+00               0
GRID*               9129               02.0000000000E+011.0000000000E+02+
*       6.0000000000E+00               0
GRID*               9130               02.0000000000E+011.0000000000E+02+
*       1.2000000000E+01               0
GRID*               9131               02.0000000000E+011.0000000000E+02+
*       1.8000000000E+01               0
GRID*               9132               02.0000000000E+011.0000000000E+02+
*       2.4000000000E+01               0
GRID*               9133               02.0000000000E+011.0000000000E+02+
*       3.0000000000E+01               0
GRID*               9134               02.0000000000E+011.0000000000E+02+
*       3.6000000000E+01               0
GRID*               9135               02.0000000000E+011.0000000000E+02+
*       4.2000000000E+01               0
GRID*               9136               02.0000000000E+011.0000000000E+02+
*       4.8000000000E+01               0
GRID*               9137               02.0000000000E+011.0000000000E+02+
*       5.4000000000E+01               0
GRID*               9138               02.0000000000E+011.0000000000E+02+
*       6.0000000000E+01               0
GRID*               9139               02.0000000000E+011.0000000000E+02+
*       6.6000000000E+01               0
GRID*               9140               02.0000000000E+011.0000000000E+02+
*       7.2000000000E+01               0
GRID*               9141               02.0000000000E+011.0000000000E+02+
*       7.8000000000E+01               0
GRID*               9142               02.0000000000E+011.0000000000E+02+
*       8.4000000000E+01               0
GRID*               9143               02.0000000000E+011.0000000000E+02+
*       9.0000000000E+01               0
GRID*               9144               02.0000000000E+011.0000000000E+02+
*       9.6000000000E+01               0
GRID*               9145               02.0000000000E+011.0000000000E+02+
*       1.0200000000E+02               0
GRID*               9146               02.0000000000E+011.0000000000E+02+
*       1.0800000000E+02               0
GRID*               9147               02.0000000000E+011.0000000000E+02+
*       1.1400000000E+02               0
GRID*               9148               02.0000000000E+011.0000000000E+02+
*       1.2000000000E+02               0
GRID*               9149               02.0000000000E+011.0000000000E+02+
*       1.2600000000E+02               0
GRID*               9150               02.0000000000E+011.0000000000E+02+
*       1.3200000000E+02               0
GRID*               9151               02.0000000000E+011.0000000000E+02+
*       1.3800000000E+02               0
GRID*               9152               02.0000000000E+011.0000000000E+02+
*       1.4400000000E+02               0
GRID*               9153               02.0000000000E+011.0000000000E+02+
*       -3.900000000E+01               0
GRID*               9154               02.0000000000E+011.0000000000E+02+
*       -3.300000000E+01               0
GRID*               9155               02.0000000000E+011.0000000000E+02+
*       -2.100000000E+01               0
GRID*               9156               02.0000000000E+011.0000000000E+02+
*       -2.700000000E+01               0
GRID*               9157               02.0000000000E+011.0000000000E+02+
*       -1.500000000E+01               0
GRID*               9158               02.0000000000E+011.0000000000E+02+
*       -9.000000000E+00               0
GRID*               9159               02.0000000000E+011.0000000000E+02+
*       -3.000000000E+00               0
GRID*               9160               02.0000000000E+011.0000000000E+02+
*       3.0000000000E+00               0
GRID*               9161               02.0000000000E+011.0000000000E+02+
*       9.0000000000E+00               0
GRID*               9162               02.0000000000E+011.0000000000E+02+
*       1.5000000000E+01               0
GRID*               9163               02.0000000000E+011.0000000000E+02+
*       2.1000000000E+01               0
GRID*               9164               02.0000000000E+011.0000000000E+02+
*       2.7000000000E+01               0
GRID*               9165               02.0000000000E+011.0000000000E+02+
*       3.3000000000E+01               0
GRID*               9166               02.0000000000E+011.0000000000E+02+
*       3.9000000000E+01               0
GRID*               9167               02.0000000000E+011.0000000000E+02+
*       5.7000000000E+01               0
GRID*               9168               02.0000000000E+011.0000000000E+02+
*       5.1000000000E+01               0
GRID*               9169               02.0000000000E+011.0000000000E+02+
*       4.5000000000E+01               0
GRID*               9170               02.0000000000E+011.0000000000E+02+
*       6.9000000000E+01               0
GRID*               9171               02.0000000000E+011.0000000000E+02+
*       6.3000000000E+01               0
GRID*               9172               02.0000000000E+011.0000000000E+02+
*       9.9000000000E+01               0
GRID*               9173               02.0000000000E+011.0000000000E+02+
*       9.3000000000E+01               0
GRID*               9174               02.0000000000E+011.0000000000E+02+
*       8.7000000000E+01               0
GRID*               9175               02.0000000000E+011.0000000000E+02+
*       8.1000000000E+01               0
GRID*               9176               02.0000000000E+011.0000000000E+02+
*       1.1100000000E+02               0
GRID*               9177               02.0000000000E+011.0000000000E+02+
*       1.1700000000E+02               0
GRID*               9178               02.0000000000E+011.0000000000E+02+
*       1.0500000000E+02               0
GRID*               9179               02.0000000000E+011.0000000000E+02+
*       1.2300000000E+02               0
GRID*               9180               02.0000000000E+011.0000000000E+02+
*       1.3500000000E+02               0
GRID*               9181               02.0000000000E+011.0000000000E+02+
*       1.2900000000E+02               0
GRID*               9182               02.0000000000E+011.0000000000E+02+
*       1.4700000000E+02               0
GRID*               9183               02.0000000000E+011.0000000000E+02+
*       1.4100000000E+02               0
GRID*               9184               02.0000000000E+011.0000000000E+02+
*       7.5000000000E+01               0
GRID*               9185               02.0000000000E+011.0000000000E+02+
*       -5.700000000E+01               0
GRID*               9186               02.0000000000E+011.0000000000E+02+
*       -5.100000000E+01               0
GRID*               9187               02.0000000000E+011.0000000000E+02+
*       -4.500000000E+01               0
GRID*               9188               02.0000000000E+011.0000000000E+02+
*       -6.900000000E+01               0
GRID*               9189               02.0000000000E+011.0000000000E+02+
*       -7.500000000E+01               0
GRID*               9190               02.0000000000E+011.0000000000E+02+
*       -1.050000000E+02               0
GRID*               9191               02.0000000000E+011.0000000000E+02+
*       -1.110000000E+02               0
GRID*               9192               02.0000000000E+011.0000000000E+02+
*       -1.170000000E+02               0
GRID*               9193               02.0000000000E+011.0000000000E+02+
*       -1.230000000E+02               0
GRID*               9194               02.0000000000E+011.0000000000E+02+
*       -1.290000000E+02               0
GRID*               9195               02.0000000000E+011.0000000000E+02+
*       -1.350000000E+02               0
GRID*               9196               02.0000000000E+011.0000000000E+02+
*       -1.410000000E+02               0
GRID*               9197               02.0000000000E+011.0000000000E+02+
*       -1.470000000E+02               0
GRID*               9198               02.0000000000E+011.0000000000E+02+
*       -8.100000000E+01               0
GRID*               9199               02.0000000000E+011.0000000000E+02+
*       -9.300000000E+01               0
GRID*               9200               02.0000000000E+011.0000000000E+02+
*       -8.700000000E+01               0
GRID*               9201               02.0000000000E+011.0000000000E+02+
*       -9.900000000E+01               0
GRID*               9202               02.0000000000E+011.0000000000E+02+
*       -6.300000000E+01               0
GRID*               9203               02.0000000000E+012.5625017944E+01+
*       -5.201731892E+00               0
GRID*               9204               02.0000000000E+012.6502888948E+01+
*       -4.690155218E+00               0
GRID*               9205               02.0000000000E+012.7341756120E+01+
*       -4.117953410E+00               0
GRID*               9206               02.0000000000E+012.8129459729E+01+
*       -3.476109216E+00               0
GRID*               9207               02.0000000000E+012.8841690151E+01+
*       -2.752471027E+00               0
GRID*               9208               02.0000000000E+012.9437527389E+01+
*       -1.929558445E+00               0
GRID*               9209               02.0000000000E+012.9847797702E+01+
*       -1.001878519E+00               0
GRID*               9210               02.0000000000E+012.7742592297E+01+
*       -3.805968851E+00               0
GRID*               9211               02.0000000000E+012.6928138346E+01+
*       -4.412550969E+00               0
GRID*               9212               02.0000000000E+012.9157655229E+01+
*       -2.353924394E+00               0
GRID*               9213               02.0000000000E+012.8497593339E+01+
*       -3.125982074E+00               0
GRID*               9214               02.0000000000E+012.9960954595E+01+
*       -5.061850049E-01               0
GRID*               9215               02.0000000000E+012.9669670134E+01+
*       -1.477490918E+00               0
GRID*               9216               02.0000000000E+012.5176783898E+01+
*       -5.440565477E+00               0
GRID*               9217               02.0000000000E+012.6067744217E+01+
*       -4.952294399E+00               0
GRID*               9218               02.0000000000E+012.9861385699E+01+
*       9.5410811654E-01               0
GRID*               9219               02.0000000000E+012.9485417594E+01+
*       1.8424199655E+00               0
GRID*               9220               02.0000000000E+012.8938224864E+01+
*       2.6380197925E+00               0
GRID*               9221               02.0000000000E+012.8275187541E+01+
*       3.3399693822E+00               0
GRID*               9222               02.0000000000E+012.7540747677E+01+
*       3.9673953715E+00               0
GRID*               9223               02.0000000000E+012.6755093528E+01+
*       4.5285610011E+00               0
GRID*               9224               02.0000000000E+012.5930939164E+01+
*       5.0313964071E+00               0
GRID*               9225               02.0000000000E+012.5080038451E+01+
*       5.4887757132E+00               0
GRID*               9226               02.0000000000E+012.4647925857E+01+
*       5.7036905560E+00               0
GRID*               9227               02.0000000000E+012.5507794171E+01+
*       5.2644619175E+00               0
GRID*               9228               02.0000000000E+012.6347394043E+01+
*       4.7869791145E+00               0
GRID*               9229               02.0000000000E+012.9229026641E+01+
*       2.2528247667E+00               0
GRID*               9230               02.0000000000E+012.8618688445E+01+
*       3.0000007765E+00               0
GRID*               9231               02.0000000000E+012.7915065156E+01+
*       3.6627236346E+00               0
GRID*               9232               02.0000000000E+012.7152463497E+01+
*       4.2543425176E+00               0
GRID*               9233               02.0000000000E+012.9962788298E+01+
*       4.8187863332E-01               0
GRID*               9234               02.0000000000E+012.9699665770E+01+
*       1.4090829649E+00               0
GRID*               9235               02.0000000000E+01-2.472776326E+01+
*       -5.663694599E+00               0
GRID*               9236               02.0000000000E+01-2.369424826E+01+
*       -6.134141712E+00               0
GRID*               9237               02.0000000000E+01-2.250844398E+01+
*       -6.614944509E+00               0
GRID*               9238               02.0000000000E+01-2.114913283E+01+
*       -7.097606093E+00               0
GRID*               9239               02.0000000000E+01-1.960170562E+01+
*       -7.576997961E+00               0
GRID*               9240               02.0000000000E+01-1.778020297E+01+
*       -8.055738560E+00               0
GRID*               9241               02.0000000000E+01-1.564851693E+01+
*       -8.533253158E+00               0
GRID*               9242               02.0000000000E+01-1.307207389E+01+
*       -9.001015811E+00               0
GRID*               9243               02.0000000000E+01-9.901057609E+00+
*       -9.441517938E+00               0
GRID*               9244               02.0000000000E+01-6.074522059E+00+
*       -9.793633589E+00               0
GRID*               9245               02.0000000000E+01-1.269233693E+00+
*       -9.991516225E+00               0
GRID*               9246               02.0000000000E+014.4165787029E+00+
*       -9.891553789E+00               0
GRID*               9247               02.0000000000E+011.0372657757E+01+
*       -9.383691448E+00               0
GRID*               9248               02.0000000000E+011.6268887659E+01+
*       -8.402494591E+00               0
GRID*               9249               02.0000000000E+011.9959006604E+01+
*       -7.471129128E+00               0
GRID*               9250               02.0000000000E+012.1396958980E+01+
*       -7.016073554E+00               0
GRID*               9251               02.0000000000E+012.2638313102E+01+
*       -6.565836213E+00               0
GRID*               9252               02.0000000000E+012.3745973060E+01+
*       -6.112471790E+00               0
GRID*               9253               02.0000000000E+012.4236269028E+01+
*       -5.894322813E+00               0
GRID*               9254               02.0000000000E+012.2020083394E+01+
*       -6.797682953E+00               0
GRID*               9255               02.0000000000E+012.3194481562E+01+
*       -6.344872806E+00               0
GRID*               9256               02.0000000000E+017.3992248979E+00+
*       -9.691353794E+00               0
GRID*               9257               02.0000000000E+011.3331910933E+01+
*       -8.960141004E+00               0
GRID*               9258               02.0000000000E+011.8122635086E+01+
*       -7.971075731E+00               0
GRID*               9259               02.0000000000E+012.0680225994E+01+
*       -7.250565479E+00               0
GRID*               9260               02.0000000000E+011.5744317818E+00+
*       -9.986406378E+00               0
GRID*               9261               02.0000000000E+01-3.673211726E+00+
*       -9.925192726E+00               0
GRID*               9262               02.0000000000E+01-1.148904195E+01+
*       -9.239715971E+00               0
GRID*               9263               02.0000000000E+01-7.989703801E+00+
*       -9.638724174E+00               0
GRID*               9264               02.0000000000E+01-2.183170377E+01+
*       -6.864399376E+00               0
GRID*               9265               02.0000000000E+01-2.037751555E+01+
*       -7.344236436E+00               0
GRID*               9266               02.0000000000E+01-1.869359573E+01+
*       -7.826128294E+00               0
GRID*               9267               02.0000000000E+01-1.671624981E+01+
*       -8.303402231E+00               0
GRID*               9268               02.0000000000E+01-1.436280035E+01+
*       -8.780569075E+00               0
GRID*               9269               02.0000000000E+01-2.421376229E+01+
*       -5.904869863E+00               0
GRID*               9270               02.0000000000E+01-2.310356687E+01+
*       -6.380067784E+00               0
GRID*               9271               02.0000000000E+01-2.518221000E+01+
*       -5.436590131E+00               0
GRID*               9272               02.0000000000E+012.3263459601E+01+
*       6.3157230308E+00               0
GRID*               9273               02.0000000000E+012.2211872746E+01+
*       6.7268561956E+00               0
GRID*               9274               02.0000000000E+012.1011831005E+01+
*       7.1427123736E+00               0
GRID*               9275               02.0000000000E+011.9651673559E+01+
*       7.5628910010E+00               0
GRID*               9276               02.0000000000E+011.8081890876E+01+
*       7.9820112256E+00               0
GRID*               9277               02.0000000000E+011.6253447518E+01+
*       8.4058386510E+00               0
GRID*               9278               02.0000000000E+011.4096606436E+01+
*       8.8281311548E+00               0
GRID*               9279               02.0000000000E+011.1529878345E+01+
*       9.2340624007E+00               0
GRID*               9280               02.0000000000E+018.3545570890E+00+
*       9.6045346673E+00               0
GRID*               9281               02.0000000000E+014.3219935625E+00+
*       9.8963223979E+00               0
GRID*               9282               02.0000000000E+01-8.349859043E-01+
*       9.9964625670E+00               0
GRID*               9283               02.0000000000E+01-6.780323283E+00+
*       9.7413358704E+00               0
GRID*               9284               02.0000000000E+01-1.280070440E+01+
*       9.0457710558E+00               0
GRID*               9285               02.0000000000E+01-1.873372202E+01+
*       7.8141691471E+00               0
GRID*               9286               02.0000000000E+01-2.236888988E+01+
*       6.6695315212E+00               0
GRID*               9287               02.0000000000E+01-2.374482716E+01+
*       6.1135391155E+00               0
GRID*               9288               02.0000000000E+01-2.493136132E+01+
*       5.5652486207E+00               0
GRID*               9289               02.0000000000E+01-2.595461826E+01+
*       5.0135331880E+00               0
GRID*               9290               02.0000000000E+012.3738688163E+01+
*       6.1156021616E+00               0
GRID*               9291               02.0000000000E+012.2739550845E+01+
*       6.5260935738E+00               0
GRID*               9292               02.0000000000E+01-2.640760826E+01+
*       4.7433055364E+00               0
GRID*               9293               02.0000000000E+01-2.544731055E+01+
*       5.2974497788E+00               0
GRID*               9294               02.0000000000E+01-2.434184931E+01+
*       5.8473342837E+00               0
GRID*               9295               02.0000000000E+01-2.306033686E+01+
*       6.4002382948E+00               0
GRID*               9296               02.0000000000E+01-2.056553741E+01+
*       7.2869547091E+00               0
GRID*               9297               02.0000000000E+01-3.809829383E+00+
*       9.9194343690E+00               0
GRID*               9298               02.0000000000E+011.7441433911E+00+
*       9.9834935482E+00               0
GRID*               9299               02.0000000000E+01-1.578277807E+01+
*       8.5044759939E+00               0
GRID*               9300               02.0000000000E+01-9.797288095E+00+
*       9.4526498615E+00               0
GRID*               9301               02.0000000000E+012.1613842933E+01+
*       6.9404383664E+00               0
GRID*               9302               02.0000000000E+011.7169080729E+01+
*       8.2001525965E+00               0
GRID*               9303               02.0000000000E+012.0333402824E+01+
*       7.3582670398E+00               0
GRID*               9304               02.0000000000E+011.8868855072E+01+
*       7.7800290531E+00               0
GRID*               9305               02.0000000000E+016.3399977231E+00+
*       9.7748341588E+00               0
GRID*               9306               02.0000000000E+019.9442842183E+00+
*       9.4365504396E+00               0
GRID*               9307               02.0000000000E+011.2814943279E+01+
*       9.0420595103E+00               0
GRID*               9308               02.0000000000E+011.5177091840E+01+
*       8.6274057531E+00               0
GRID*               9309               02.0000000000E+01-2.764774593E+01+
*       3.8834394169E+00               0
GRID*               9310               02.0000000000E+01-2.838745753E+01+
*       3.2354824256E+00               0
GRID*               9311               02.0000000000E+01-2.904420731E+01+
*       2.5045088559E+00               0
GRID*               9312               02.0000000000E+01-2.957432630E+01+
*       1.6771705539E+00               0
GRID*               9313               02.0000000000E+01-2.991016586E+01+
*       7.5486650650E-01               0
GRID*               9314               02.0000000000E+01-2.999225766E+01+
*       -2.221570938E-01               0
GRID*               9315               02.0000000000E+01-2.978796142E+01+
*       -1.181801856E+00               0
GRID*               9316               02.0000000000E+01-2.935349006E+01+
*       -2.063352252E+00               0
GRID*               9317               02.0000000000E+01-2.876022430E+01+
*       -2.846424383E+00               0
GRID*               9318               02.0000000000E+01-2.805937188E+01+
*       -3.536518699E+00               0
GRID*               9319               02.0000000000E+01-2.729350493E+01+
*       -4.152332977E+00               0
GRID*               9320               02.0000000000E+01-2.648106815E+01+
*       -4.705523577E+00               0
GRID*               9321               02.0000000000E+01-2.606064816E+01+
*       -4.960123018E+00               0
GRID*               9322               02.0000000000E+01-2.907275667E+01+
*       -2.467098834E+00               0
GRID*               9323               02.0000000000E+01-2.842001035E+01+
*       -3.201446633E+00               0
GRID*               9324               02.0000000000E+01-2.768434256E+01+
*       -3.854470655E+00               0
GRID*               9325               02.0000000000E+01-2.689193507E+01+
*       -4.435785191E+00               0
GRID*               9326               02.0000000000E+01-2.933046668E+01+
*       2.1040709821E+00               0
GRID*               9327               02.0000000000E+01-2.872809421E+01+
*       2.8811463982E+00               0
GRID*               9328               02.0000000000E+01-2.802565587E+01+
*       3.5684665276E+00               0
GRID*               9329               02.0000000000E+01-2.725721796E+01+
*       4.1816337841E+00               0
GRID*               9330               02.0000000000E+01-2.992323338E+01+
*       -7.094099850E-01               0
GRID*               9331               02.0000000000E+01-2.959553609E+01+
*       -1.634460796E+00               0
GRID*               9332               02.0000000000E+01-2.998693818E+01+
*       2.6914973071E-01               0
GRID*               9333               02.0000000000E+01-2.977080198E+01+
*       1.2265582897E+00               0
GRID*               9334               02.0000000000E+01-1.000000000E+02+
*       1.5000000000E+02               0
GRID*               9335               02.0000000000E+01-1.000000000E+02+
*       -1.500000000E+02               0
GRID*               9336               02.0000000000E+013.0000000000E+01+
*       9.3541621027E-07               0
GRID*               9337               02.0000000000E+011.0000000000E+02+
*       -1.500000000E+02               0
GRID*               9338               02.0000000000E+011.0000000000E+02+
*       1.5000000000E+02               0
GRID*               9339               02.0000000000E+012.4722450256E+01+
*       -5.667150974E+00               0
GRID*               9340               02.0000000000E+012.4210664749E+01+
*       5.9079275131E+00               0
GRID*               9341               02.0000000000E+01-2.563128090E+01+
*       -5.199328899E+00               0
GRID*               9342               02.0000000000E+01-2.685336304E+01+
*       4.4613013268E+00               0
$*
$* ELEMENT CARDS
$*
$*  Mesh Collector: ThinShell(1)
$*  Mesh: 2d_mesh(1)
CTRIA6         1       1      42      56      41    2161    2162    2163
CTRIA6         2       1    9225      69      67    2164    2165    2166
CTRIA6         3       1      69    9340      68    2167    2168    2169
CTRIA6         4       1      69    9225    9340    2164    9226    2167
CTRIA6         5       1    9272      68    9340    2170    2168    9290
CTRIA6         6       1      37    9272    9273    2171    9291    2172
CTRIA6         7       1      37      68    9272    2173    2170    2171
CTRIA6         8       1      70      38      39    2174    2175    2176
CTRIA6         9       1      38      68      37    2177    2173    2178
CTRIA6        10       1      70      68      38    2179    2177    2174
CTRIA6        11       1      68      70      69    2179    2180    2169
CTRIA6        12       1      70      67      69    2181    2165    2180
CTRIA6        13       1      71      57      64    2182    2183    2184
CTRIA6        14       1      56      71      41    2185    2186    2162
CTRIA6        15       1      56      57      71    2187    2182    2185
CTRIA6        16       1      71      40      41    2188    2189    2186
CTRIA6        17       1      72      40      71    2190    2188    2191
CTRIA6        18       1      39      72      70    2192    2193    2176
CTRIA6        19       1      39      40      72    2194    2190    2192
CTRIA6        20       1      70      66      67    2195    2196    2181
CTRIA6        21       1      64      72      71    2197    2191    2184
CTRIA6        22       1      72      66      70    2198    2195    2193
CTRIA6        23       1      65      72      64    2199    2197    2200
CTRIA6        24       1      65      66      72    2201    2198    2199
CTRIA6        25       1      67    9224    9225    2202    9227    2166
CTRIA6        26       1      58      64      57    2203    2183    2204
CTRIA6        27       1    9224      73    9223    2205    2206    9228
CTRIA6        28       1      73      67      66    2207    2196    2208
CTRIA6        29       1      73    9224      67    2205    2202    2207
CTRIA6        30       1      62      64      58    2209    2203    2210
CTRIA6        31       1      62      65      64    2211    2200    2209
CTRIA6        32       1      74      62      63    2212    2213    2214
CTRIA6        33       1      74      65      62    2215    2211    2212
CTRIA6        34       1      66      74      73    2216    2217    2208
CTRIA6        35       1      66      65      74    2201    2215    2216
CTRIA6        36       1      73      63    9223    2218    2219    2206
CTRIA6        37       1      73      74      63    2217    2214    2218
CTRIA6        38       1    9220      61    9219    2220    2221    9229
CTRIA6        39       1      75    9220    9221    2222    9230    2223
CTRIA6        40       1      61      75      60    2224    2225    2226
CTRIA6        41       1      61    9220      75    2220    2222    2224
CTRIA6        42       1      62      59      76    2227    2228    2229
CTRIA6        43       1      62      58      59    2210    2230    2227
CTRIA6        44       1      76      60      75    2231    2225    2232
CTRIA6        45       1      76      59      60    2228    2233    2231
CTRIA6        46       1      75      77      76    2234    2235    2232
CTRIA6        47       1      77    9221    9222    2236    9231    2237
CTRIA6        48       1      77      75    9221    2234    2223    2236
CTRIA6        49       1      63    9222    9223    2238    9232    2219
CTRIA6        50       1      76      63      62    2239    2213    2229
CTRIA6        51       1      63      77    9222    2240    2237    2238
CTRIA6        52       1      63      76      77    2239    2235    2240
CTRIA6        53       1      81    9205    9206    2241    9210    2242
CTRIA6        54       1    9205      18    9204    2243    2244    9211
CTRIA6        55       1      18      81      17    2245    2246    2247
CTRIA6        56       1      18    9205      81    2243    2241    2245
CTRIA6        57       1      15      16      80    2248    2249    2250
CTRIA6        58       1      78    9207    9208    2251    9212    2252
CTRIA6        59       1    9206      82      81    2253    2254    2242
CTRIA6        60       1      82    9207      78    2255    2251    2256
CTRIA6        61       1      82    9206    9207    2253    9213    2255
CTRIA6        62       1      79      82      78    2257    2256    2258
CTRIA6        63       1      83      16      17    2259    2260    2261
CTRIA6        64       1      80      83      79    2262    2263    2264
CTRIA6        65       1      80      16      83    2249    2259    2262
CTRIA6        66       1      81      83      17    2265    2261    2246
CTRIA6        67       1      83      82      79    2266    2257    2263
CTRIA6        68       1      83      81      82    2265    2254    2266
CTRIA6        69       1       1    9122    9121    2267    9153    2268
CTRIA6        70       1     107       1       2    2269    2270    2271
CTRIA6        71       1    9122     107    9123    2272    2273    9154
CTRIA6        72       1    9122       1     107    2267    2269    2272
CTRIA6        73       1     106    9124     108    2274    2275    2276
CTRIA6        74       1     106    9125    9124    2277    9155    2274
CTRIA6        75       1     108    9123     107    2278    2273    2279
CTRIA6        76       1     108    9124    9123    2275    9156    2278
CTRIA6        77       1     109       2       3    2280    2281    2282
CTRIA6        78       1     107     109     108    2283    2284    2279
CTRIA6        79       1     107       2     109    2271    2280    2283
CTRIA6        80       1     108     105     106    2285    2286    2276
CTRIA6        81       1     108     109     105    2284    2287    2285
CTRIA6        82       1     104       3       4    2288    2289    2290
CTRIA6        83       1     109     104     105    2291    2292    2287
CTRIA6        84       1     109       3     104    2282    2288    2291
CTRIA6        85       1    9126     113     103    2293    2294    2295
CTRIA6        86       1     113    9125     106    2296    2277    2297
CTRIA6        87       1     113    9126    9125    2293    9157    2296
CTRIA6        88       1     102     112     101    2298    2299    2300
CTRIA6        89       1     110     105     104    2301    2292    2302
CTRIA6        90       1     114     102     103    2303    2304    2305
CTRIA6        91       1     112     114     111    2306    2307    2308
CTRIA6        92       1     112     102     114    2298    2303    2306
CTRIA6        93       1     115     111     114    2309    2307    2310
CTRIA6        94       1     110     115     105    2311    2312    2301
CTRIA6        95       1     110     111     115    2313    2309    2311
CTRIA6        96       1     115     106     105    2314    2286    2312
CTRIA6        97       1     115     113     106    2315    2297    2314
CTRIA6        98       1     113     114     103    2316    2305    2294
CTRIA6        99       1     113     115     114    2315    2310    2316
CTRIA6       100       1     116      99     100    2317    2318    2319
CTRIA6       101       1      99      93      94    2320    2321    2322
CTRIA6       102       1      93     116      92    2323    2324    2325
CTRIA6       103       1      93      99     116    2320    2317    2323
CTRIA6       104       1     117       4       5    2326    2327    2328
CTRIA6       105       1     104     117     110    2329    2330    2302
CTRIA6       106       1     104       4     117    2290    2326    2329
CTRIA6       107       1     118       5       6    2331    2332    2333
CTRIA6       108       1     118     117       5    2334    2328    2331
CTRIA6       109       1     119     117     118    2335    2334    2336
CTRIA6       110       1     110     119     111    2337    2338    2313
CTRIA6       111       1     110     117     119    2330    2335    2337
CTRIA6       112       1     100     120     116    2339    2340    2319
CTRIA6       113       1     120     101     112    2341    2299    2342
CTRIA6       114       1     120     100     101    2339    2343    2341
CTRIA6       115       1     121     116     120    2344    2340    2345
CTRIA6       116       1      92     121      91    2346    2347    2348
CTRIA6       117       1      92     116     121    2324    2344    2346
CTRIA6       118       1     122     111     119    2349    2338    2350
CTRIA6       119       1     112     122     120    2351    2352    2342
CTRIA6       120       1     112     111     122    2308    2349    2351
CTRIA6       121       1      90     118       6    2353    2333    2354
CTRIA6       122       1      90     123     118    2355    2356    2353
CTRIA6       123       1     123      91     121    2357    2347    2358
CTRIA6       124       1     123      90      91    2355    2359    2357
CTRIA6       125       1     123     119     118    2360    2336    2356
CTRIA6       126       1     122     121     120    2361    2345    2352
CTRIA6       127       1     123     122     119    2362    2350    2360
CTRIA6       128       1     123     121     122    2358    2361    2362
CTRIA6       129       1     124      49      50    2363    2364    2365
CTRIA6       130       1      98     125      97    2366    2367    2368
CTRIA6       131       1     124      98      49    2369    2370    2363
CTRIA6       132       1     124     125      98    2371    2366    2369
CTRIA6       133       1      97     126      96    2372    2373    2374
CTRIA6       134       1      97     125     126    2367    2375    2372
CTRIA6       135       1      94     128      99    2376    2377    2322
CTRIA6       136       1     127      96     126    2378    2373    2379
CTRIA6       137       1     127      95      96    2380    2381    2378
CTRIA6       138       1      95     128      94    2382    2376    2383
CTRIA6       139       1      95     127     128    2380    2384    2382
CTRIA6       140       1    9127     103     132    2385    2386    2387
CTRIA6       141       1    9127    9126     103    9158    2295    2385
CTRIA6       142       1     132     102     131    2388    2389    2390
CTRIA6       143       1     132     103     102    2386    2304    2388
CTRIA6       144       1     131     101     130    2391    2392    2393
CTRIA6       145       1     131     102     101    2389    2300    2391
CTRIA6       146       1      99     129     100    2394    2395    2318
CTRIA6       147       1      99     128     129    2377    2396    2394
CTRIA6       148       1     100     130     101    2397    2392    2343
CTRIA6       149       1     100     129     130    2395    2398    2397
CTRIA6       150       1    9128     132     136    2399    2400    2401
CTRIA6       151       1    9128    9127     132    9159    2387    2399
CTRIA6       152       1     136     131     135    2402    2403    2404
CTRIA6       153       1     136     132     131    2400    2390    2402
CTRIA6       154       1     135     130     134    2405    2406    2407
CTRIA6       155       1     135     131     130    2403    2393    2405
CTRIA6       156       1     128     133     129    2408    2409    2396
CTRIA6       157       1     128     127     133    2384    2410    2408
CTRIA6       158       1     129     134     130    2411    2406    2398
CTRIA6       159       1     129     133     134    2409    2412    2411
CTRIA6       160       1      50     137     124    2413    2414    2365
CTRIA6       161       1      50      51     137    2415    2416    2413
CTRIA6       162       1     138     124     137    2417    2414    2418
CTRIA6       163       1     127     140     133    2419    2420    2410
CTRIA6       164       1     140     126     139    2421    2422    2423
CTRIA6       165       1     140     127     126    2419    2379    2421
CTRIA6       166       1     138     125     124    2424    2371    2417
CTRIA6       167       1     125     139     126    2425    2422    2375
CTRIA6       168       1     125     138     139    2424    2426    2425
CTRIA6       169       1      51     141     137    2427    2428    2416
CTRIA6       170       1      51      52     141    2429    2430    2427
CTRIA6       171       1     137     142     138    2431    2432    2418
CTRIA6       172       1     137     141     142    2428    2433    2431
CTRIA6       173       1     138     143     139    2434    2435    2426
CTRIA6       174       1     138     142     143    2432    2436    2434
CTRIA6       175       1     133     145     134    2437    2438    2412
CTRIA6       176       1     139     144     140    2439    2440    2423
CTRIA6       177       1     139     143     144    2435    2441    2439
CTRIA6       178       1     140     145     133    2442    2437    2420
CTRIA6       179       1     140     144     145    2440    2443    2442
CTRIA6       180       1      52     146     141    2444    2445    2430
CTRIA6       181       1      52      53     146    2446    2447    2444
CTRIA6       182       1     141     147     142    2448    2449    2433
CTRIA6       183       1     141     146     147    2445    2450    2448
CTRIA6       184       1     142     148     143    2451    2452    2436
CTRIA6       185       1     142     147     148    2449    2453    2451
CTRIA6       186       1     143     149     144    2454    2455    2441
CTRIA6       187       1     143     148     149    2452    2456    2454
CTRIA6       188       1     134     151     135    2457    2458    2407
CTRIA6       189       1     144     150     145    2459    2460    2443
CTRIA6       190       1     144     149     150    2455    2461    2459
CTRIA6       191       1     145     151     134    2462    2457    2438
CTRIA6       192       1     145     150     151    2460    2463    2462
CTRIA6       193       1    9129     136     152    2464    2465    2466
CTRIA6       194       1    9129    9128     136    9160    2401    2464
CTRIA6       195       1     152     135     151    2467    2458    2468
CTRIA6       196       1     152     136     135    2465    2404    2467
CTRIA6       197       1    9130     152     153    2469    2470    2471
CTRIA6       198       1    9130    9129     152    9161    2466    2469
CTRIA6       199       1     153     151     150    2472    2463    2473
CTRIA6       200       1     153     152     151    2470    2468    2472
CTRIA6       201       1     153    9131    9130    2474    9162    2471
CTRIA6       202       1     154     150     149    2475    2461    2476
CTRIA6       203       1     153     155    9131    2477    2478    2474
CTRIA6       204       1     154     153     150    2479    2473    2475
CTRIA6       205       1     154     155     153    2480    2477    2479
CTRIA6       206       1     149     159     154    2481    2482    2476
CTRIA6       207       1     149     148     159    2456    2483    2481
CTRIA6       208       1     158     148     147    2484    2453    2485
CTRIA6       209       1     158     159     148    2486    2483    2484
CTRIA6       210       1     147     157     158    2487    2488    2485
CTRIA6       211       1     147     146     157    2450    2489    2487
CTRIA6       212       1     156      53      54    2490    2491    2492
CTRIA6       213       1     146     156     157    2493    2494    2489
CTRIA6       214       1     146      53     156    2447    2490    2493
CTRIA6       215       1    9132     155     160    2495    2496    2497
CTRIA6       216       1    9132    9131     155    9163    2478    2495
CTRIA6       217       1     160     154     159    2498    2482    2499
CTRIA6       218       1     160     155     154    2496    2480    2498
CTRIA6       219       1    9133     160     161    2500    2501    2502
CTRIA6       220       1    9133    9132     160    9164    2497    2500
CTRIA6       221       1     161     159     158    2503    2486    2504
CTRIA6       222       1     161     160     159    2501    2499    2503
CTRIA6       223       1    9134     161     162    2505    2506    2507
CTRIA6       224       1    9134    9133     161    9165    2502    2505
CTRIA6       225       1     162     158     157    2508    2488    2509
CTRIA6       226       1     162     161     158    2506    2504    2508
CTRIA6       227       1    9135     162     163    2510    2511    2512
CTRIA6       228       1    9135    9134     162    9166    2507    2510
CTRIA6       229       1     163     157     156    2513    2494    2514
CTRIA6       230       1     163     162     157    2511    2509    2513
CTRIA6       231       1    9137      55    9138    2515    2516    9167
CTRIA6       232       1     164    9137    9136    2517    9168    2518
CTRIA6       233       1      55     164      54    2519    2520    2521
CTRIA6       234       1      55    9137     164    2515    2517    2519
CTRIA6       235       1     156     164     163    2522    2523    2514
CTRIA6       236       1     156      54     164    2492    2520    2522
CTRIA6       237       1     163    9136    9135    2524    9169    2512
CTRIA6       238       1     163     164    9136    2523    2518    2524
CTRIA6       239       1     165      43      44    2525    2526    2527
CTRIA6       240       1      12     171      11    2528    2529    2530
CTRIA6       241       1     172    9336    9218    2531    9233    2532
CTRIA6       242       1     172      89    9336    2533    2534    2531
CTRIA6       243       1     172     173      89    2535    2536    2533
CTRIA6       244       1     179     173     174    2537    2538    2539
CTRIA6       245       1      89     179      88    2540    2541    2542
CTRIA6       246       1      89     173     179    2536    2537    2540
CTRIA6       247       1      87     178      86    2543    2544    2545
CTRIA6       248       1     174     178     179    2546    2547    2539
CTRIA6       249       1     174     175     178    2548    2549    2546
CTRIA6       250       1     179      87      88    2550    2551    2541
CTRIA6       251       1     179     178      87    2547    2543    2550
CTRIA6       252       1     170     181     177    2552    2553    2554
CTRIA6       253       1     171     181     170    2555    2552    2556
CTRIA6       254       1     180     171      12    2557    2528    2558
CTRIA6       255       1     180     181     171    2559    2555    2557
CTRIA6       256       1      86     182      85    2560    2561    2562
CTRIA6       257       1      86     178     182    2544    2563    2560
CTRIA6       258       1     182     175     176    2564    2565    2566
CTRIA6       259       1     182     178     175    2563    2549    2564
CTRIA6       260       1     183     177     181    2567    2553    2568
CTRIA6       261       1     176     183     182    2569    2570    2566
CTRIA6       262       1     176     177     183    2571    2567    2569
CTRIA6       263       1      85     184      84    2572    2573    2574
CTRIA6       264       1     184     182     183    2575    2570    2576
CTRIA6       265       1     184      85     182    2572    2561    2575
CTRIA6       266       1      13     180      12    2577    2558    2578
CTRIA6       267       1     181     184     183    2579    2576    2568
CTRIA6       268       1     181     180     184    2559    2580    2579
CTRIA6       269       1     180      13      84    2577    2581    2582
CTRIA6       270       1     184     180      84    2580    2582    2573
CTRIA6       271       1     174     190     175    2583    2584    2548
CTRIA6       272       1     185     174     173    2585    2538    2586
CTRIA6       273       1     190     185     186    2587    2588    2589
CTRIA6       274       1     190     174     185    2583    2585    2587
CTRIA6       275       1     189     186     187    2590    2591    2592
CTRIA6       276       1     175     189     176    2593    2594    2565
CTRIA6       277       1     189     190     186    2595    2589    2590
CTRIA6       278       1     189     175     190    2593    2584    2595
CTRIA6       279       1     187     191     189    2596    2597    2592
CTRIA6       280       1     187     188     191    2598    2599    2596
CTRIA6       281       1     192     189     191    2600    2597    2601
CTRIA6       282       1     176     192     177    2602    2603    2571
CTRIA6       283       1     176     189     192    2594    2600    2602
CTRIA6       284       1     168     188     167    2604    2605    2606
CTRIA6       285       1     177     169     170    2607    2608    2554
CTRIA6       286       1     192     169     177    2609    2607    2603
CTRIA6       287       1     168     191     188    2610    2599    2604
CTRIA6       288       1     192     168     169    2611    2612    2609
CTRIA6       289       1     192     191     168    2601    2610    2611
CTRIA6       290       1     197     242     166    2613    2614    2615
CTRIA6       291       1     165     196      43    2616    2617    2525
CTRIA6       292       1     165     197     196    2618    2619    2616
CTRIA6       293       1     198     167     188    2620    2605    2621
CTRIA6       294       1     166     198     197    2622    2623    2615
CTRIA6       295       1     166     167     198    2624    2620    2622
CTRIA6       296       1     197     195     196    2625    2626    2619
CTRIA6       297       1     193     188     187    2627    2598    2628
CTRIA6       298       1     195     198     194    2629    2630    2631
CTRIA6       299       1     195     197     198    2625    2623    2629
CTRIA6       300       1     193     198     188    2632    2621    2627
CTRIA6       301       1     193     194     198    2633    2630    2632
CTRIA6       302       1     173     199     185    2634    2635    2586
CTRIA6       303       1     173     172     199    2535    2636    2634
CTRIA6       304       1     187     201     193    2637    2638    2628
CTRIA6       305       1     187     186     201    2591    2639    2637
CTRIA6       306       1     186     200     201    2640    2641    2639
CTRIA6       307       1     200     185     199    2642    2635    2643
CTRIA6       308       1     200     186     185    2640    2588    2642
CTRIA6       309       1      42     202      56    2644    2645    2161
CTRIA6       310       1     196      42      43    2646    2647    2617
CTRIA6       311       1     196     202      42    2648    2644    2646
CTRIA6       312       1     195     202     196    2649    2648    2626
CTRIA6       313       1     202     204      56    2650    2651    2645
CTRIA6       314       1     203     195     194    2652    2631    2653
CTRIA6       315       1     203     204     202    2654    2650    2655
CTRIA6       316       1     195     203     202    2652    2655    2649
CTRIA6       317       1      57     205      58    2656    2657    2204
CTRIA6       318       1     204      57      56    2658    2187    2651
CTRIA6       319       1     205     204     203    2659    2654    2660
CTRIA6       320       1     205      57     204    2656    2658    2659
CTRIA6       321       1     206     194     193    2661    2633    2662
CTRIA6       322       1     203     206     205    2663    2664    2660
CTRIA6       323       1     203     194     206    2653    2661    2663
CTRIA6       324       1     201     206     193    2665    2662    2638
CTRIA6       325       1     207      61      60    2666    2226    2667
CTRIA6       326       1     199     210     208    2668    2669    2670
CTRIA6       327       1     199     172     210    2636    2671    2668
CTRIA6       328       1    9218     210     172    2672    2671    2532
CTRIA6       329       1     209    9219      61    2673    2221    2674
CTRIA6       330       1    9219     210    9218    2675    2672    9234
CTRIA6       331       1    9219     209     210    2673    2676    2675
CTRIA6       332       1     199     208     200    2670    2677    2643
CTRIA6       333       1     210     209     208    2676    2678    2669
CTRIA6       334       1     207     209      61    2679    2674    2666
CTRIA6       335       1     207     208     209    2680    2678    2679
CTRIA6       336       1     200     211     201    2681    2682    2641
CTRIA6       337       1     200     208     211    2677    2683    2681
CTRIA6       338       1     206     212     205    2684    2685    2664
CTRIA6       339       1     211     206     201    2686    2665    2682
CTRIA6       340       1     211     212     206    2687    2684    2686
CTRIA6       341       1      58     212      59    2688    2689    2230
CTRIA6       342       1      58     205     212    2657    2685    2688
CTRIA6       343       1     207     211     208    2690    2683    2680
CTRIA6       344       1     211      59     212    2691    2689    2687
CTRIA6       345       1      59     207      60    2692    2667    2233
CTRIA6       346       1      59     211     207    2691    2690    2692
CTRIA6       347       1     216      91      90    2693    2359    2694
CTRIA6       348       1      91     218      92    2695    2696    2348
CTRIA6       349       1     218     216     217    2697    2698    2699
CTRIA6       350       1     218      91     216    2695    2693    2697
CTRIA6       351       1      92     215      93    2700    2701    2325
CTRIA6       352       1     217     214     218    2702    2703    2699
CTRIA6       353       1     217     213     214    2704    2705    2702
CTRIA6       354       1     218     215      92    2706    2700    2696
CTRIA6       355       1     218     214     215    2703    2707    2706
CTRIA6       356       1     213       9      10    2708    2709    2710
CTRIA6       357       1       9     217       8    2711    2712    2713
CTRIA6       358       1       9     213     217    2708    2704    2711
CTRIA6       359       1       7      90       6    2714    2354    2715
CTRIA6       360       1     216       8     217    2716    2712    2698
CTRIA6       361       1       7     216      90    2717    2694    2714
CTRIA6       362       1       7       8     216    2718    2716    2717
CTRIA6       363       1     213     224     214    2719    2720    2705
CTRIA6       364       1     224     225     223    2721    2722    2723
CTRIA6       365       1     225     213      10    2724    2710    2725
CTRIA6       366       1     225     224     213    2721    2719    2724
CTRIA6       367       1     223     170     169    2726    2608    2727
CTRIA6       368       1      11     225      10    2728    2725    2729
CTRIA6       369       1      11     171     225    2529    2730    2728
CTRIA6       370       1     225     170     223    2731    2726    2722
CTRIA6       371       1     225     171     170    2730    2556    2731
CTRIA6       372       1     219     168     167    2732    2606    2733
CTRIA6       373       1     214     222     215    2734    2735    2707
CTRIA6       374       1     226     219     220    2736    2737    2738
CTRIA6       375       1     168     226     169    2739    2740    2612
CTRIA6       376       1     168     219     226    2732    2736    2739
CTRIA6       377       1     224     222     214    2741    2734    2720
CTRIA6       378       1     224     221     222    2742    2743    2741
CTRIA6       379       1     224     223     221    2723    2744    2742
CTRIA6       380       1     226     223     169    2745    2727    2740
CTRIA6       381       1     223     220     221    2746    2747    2744
CTRIA6       382       1     223     226     220    2745    2738    2746
CTRIA6       383       1     230      97      96    2748    2374    2749
CTRIA6       384       1      97     232      98    2750    2751    2368
CTRIA6       385       1     232     230     231    2752    2753    2754
CTRIA6       386       1     232      97     230    2750    2748    2752
CTRIA6       387       1      98      48      49    2755    2756    2370
CTRIA6       388       1     231      47     232    2757    2758    2754
CTRIA6       389       1     231      46      47    2759    2760    2757
CTRIA6       390       1     232      48      98    2761    2755    2751
CTRIA6       391       1     232      47      48    2758    2762    2761
CTRIA6       392       1      46     229      45    2763    2764    2765
CTRIA6       393       1     227      96      95    2766    2381    2767
CTRIA6       394       1     230     227     228    2768    2769    2770
CTRIA6       395       1     230      96     227    2749    2766    2768
CTRIA6       396       1     231     229      46    2771    2763    2759
CTRIA6       397       1     228     231     230    2772    2753    2770
CTRIA6       398       1     228     229     231    2773    2771    2772
CTRIA6       399       1      95     234     227    2774    2775    2767
CTRIA6       400       1      95      94     234    2383    2776    2774
CTRIA6       401       1     233      93     215    2777    2701    2778
CTRIA6       402       1      94     233     234    2779    2780    2776
CTRIA6       403       1      94      93     233    2321    2777    2779
CTRIA6       404       1     222     233     215    2781    2778    2735
CTRIA6       405       1     222     235     233    2782    2783    2781
CTRIA6       406       1     227     236     228    2784    2785    2769
CTRIA6       407       1     227     234     236    2775    2786    2784
CTRIA6       408       1     235     234     233    2787    2780    2783
CTRIA6       409       1     235     236     234    2788    2786    2787
CTRIA6       410       1      45     238      44    2789    2790    2791
CTRIA6       411       1      45     229     238    2764    2792    2789
CTRIA6       412       1     237     228     236    2793    2785    2794
CTRIA6       413       1     229     237     238    2795    2796    2792
CTRIA6       414       1     229     228     237    2773    2793    2795
CTRIA6       415       1     236     239     237    2797    2798    2794
CTRIA6       416       1     236     235     239    2788    2799    2797
CTRIA6       417       1     221     235     222    2800    2782    2743
CTRIA6       418       1     221     239     235    2801    2799    2800
CTRIA6       419       1     166     241     167    2802    2803    2624
CTRIA6       420       1     241     242     240    2804    2805    2806
CTRIA6       421       1     242     197     165    2613    2618    2807
CTRIA6       422       1     242     241     166    2804    2802    2614
CTRIA6       423       1     238     165      44    2808    2527    2790
CTRIA6       424       1     240     238     237    2809    2796    2810
CTRIA6       425       1     238     242     165    2811    2807    2808
CTRIA6       426       1     238     240     242    2809    2805    2811
CTRIA6       427       1     243     241     240    2812    2806    2813
CTRIA6       428       1     241     219     167    2814    2733    2803
CTRIA6       429       1     219     243     220    2815    2816    2737
CTRIA6       430       1     219     241     243    2814    2812    2815
CTRIA6       431       1     220     239     221    2817    2801    2747
CTRIA6       432       1     239     240     237    2818    2810    2798
CTRIA6       433       1     243     239     220    2819    2817    2816
CTRIA6       434       1     243     240     239    2813    2818    2819
CTRIA6       435       1      13      14      84    2820    2821    2581
CTRIA6       436       1    9336      89    9209    2534    2822    9214
CTRIA6       437       1    9209      88    9208    2823    2824    9215
CTRIA6       438       1    9209      89      88    2822    2542    2823
CTRIA6       439       1     244      15      80    2825    2250    2826
CTRIA6       440       1    1189      15     245    2827    2828    2829
CTRIA6       441       1     244     245      15    2830    2828    2825
CTRIA6       442       1      85     245     244    2831    2830    2832
CTRIA6       443       1     245      84      14    2833    2821    2834
CTRIA6       444       1     245      85      84    2831    2574    2833
CTRIA6       445       1     246      88      87    2835    2551    2836
CTRIA6       446       1    9208     246      78    2837    2838    2252
CTRIA6       447       1    9208      88     246    2824    2835    2837
CTRIA6       448       1      80     247     244    2839    2840    2826
CTRIA6       449       1      80      79     247    2264    2841    2839
CTRIA6       450       1     246      79      78    2842    2258    2838
CTRIA6       451       1     246     247      79    2843    2841    2842
CTRIA6       452       1     244      86      85    2844    2562    2832
CTRIA6       453       1     244     247      86    2840    2845    2844
CTRIA6       454       1      87     247     246    2846    2843    2836
CTRIA6       455       1      87      86     247    2545    2845    2846
CTRIA6       456       1    9342     304    9289    2847    2848    9292
CTRIA6       457       1      19     304    9342    2849    2847    2850
CTRIA6       458       1     299      23      24    2851    2852    2853
CTRIA6       459       1     299     300      23    2854    2855    2851
CTRIA6       460       1      19     303     304    2856    2857    2849
CTRIA6       461       1      20     303      19    2858    2856    2859
CTRIA6       462       1     300      22      23    2860    2861    2855
CTRIA6       463       1     300     301      22    2862    2863    2860
CTRIA6       464       1      20     302     303    2864    2865    2858
CTRIA6       465       1      20      21     302    2866    2867    2864
CTRIA6       466       1     301      21      22    2868    2869    2863
CTRIA6       467       1     301     302      21    2870    2867    2868
CTRIA6       468       1    8892     286      36    2871    2872    2873
CTRIA6       469       1    8892    8891     286    8924    2874    2871
CTRIA6       470       1     287      36     286    2875    2872    2876
CTRIA6       471       1     287      35      36    2877    2878    2875
CTRIA6       472       1     288      35     287    2879    2877    2880
CTRIA6       473       1     288      34      35    2881    2882    2879
CTRIA6       474       1     289      34     288    2883    2881    2884
CTRIA6       475       1     289      33      34    2885    2886    2883
CTRIA6       476       1     289     290      33    2887    2888    2885
CTRIA6       477       1     290      32      33    2889    2890    2888
CTRIA6       478       1     290     291      32    2891    2892    2889
CTRIA6       479       1      24     298     299    2893    2894    2853
CTRIA6       480       1      24      25     298    2895    2896    2893
CTRIA6       481       1     291      31      32    2897    2898    2892
CTRIA6       482       1     291     292      31    2899    2900    2897
CTRIA6       483       1     292      30      31    2901    2902    2900
CTRIA6       484       1     292     293      30    2903    2904    2901
CTRIA6       485       1      30     293      29    2904    2905    2906
CTRIA6       486       1     293     294      29    2907    2908    2905
CTRIA6       487       1      29     294      28    2908    2909    2910
CTRIA6       488       1     294     295      28    2911    2912    2909
CTRIA6       489       1      28     295      27    2912    2913    2914
CTRIA6       490       1     295     296      27    2915    2916    2913
CTRIA6       491       1      27     296      26    2916    2917    2918
CTRIA6       492       1     296     297      26    2919    2920    2917
CTRIA6       493       1      26     297      25    2920    2921    2922
CTRIA6       494       1     297     298      25    2923    2896    2921
CTRIA6       495       1    9289     323    9288    2924    2925    9293
CTRIA6       496       1     304     323    9289    2926    2924    2848
CTRIA6       497       1     298     318     299    2927    2928    2894
CTRIA6       498       1     298     317     318    2929    2930    2927
CTRIA6       499       1     304     322     323    2931    2932    2926
CTRIA6       500       1     303     322     304    2933    2931    2857
CTRIA6       501       1     299     319     300    2934    2935    2854
CTRIA6       502       1     299     318     319    2928    2936    2934
CTRIA6       503       1     300     320     301    2937    2938    2862
CTRIA6       504       1     300     319     320    2935    2939    2937
CTRIA6       505       1     303     321     322    2940    2941    2933
CTRIA6       506       1     303     302     321    2865    2942    2940
CTRIA6       507       1     321     301     320    2943    2938    2944
CTRIA6       508       1     321     302     301    2942    2870    2943
CTRIA6       509       1     305    8891    8890    2945    8925    2946
CTRIA6       510       1     308     288     307    2947    2948    2949
CTRIA6       511       1     308     289     288    2950    2884    2947
CTRIA6       512       1     307     287     306    2951    2952    2953
CTRIA6       513       1     307     288     287    2948    2880    2951
CTRIA6       514       1     305     286    8891    2954    2874    2945
CTRIA6       515       1     286     306     287    2955    2952    2876
CTRIA6       516       1     286     305     306    2954    2956    2955
CTRIA6       517       1     317     297     316    2957    2958    2959
CTRIA6       518       1     317     298     297    2929    2923    2957
CTRIA6       519       1     289     309     290    2960    2961    2887
CTRIA6       520       1     289     308     309    2950    2962    2960
CTRIA6       521       1     290     310     291    2963    2964    2891
CTRIA6       522       1     290     309     310    2961    2965    2963
CTRIA6       523       1     291     311     292    2966    2967    2899
CTRIA6       524       1     291     310     311    2964    2968    2966
CTRIA6       525       1     292     312     293    2969    2970    2903
CTRIA6       526       1     292     311     312    2967    2971    2969
CTRIA6       527       1     316     296     315    2972    2973    2974
CTRIA6       528       1     316     297     296    2958    2919    2972
CTRIA6       529       1     293     313     294    2975    2976    2907
CTRIA6       530       1     293     312     313    2970    2977    2975
CTRIA6       531       1     315     295     314    2978    2979    2980
CTRIA6       532       1     315     296     295    2973    2915    2978
CTRIA6       533       1     314     294     313    2981    2976    2982
CTRIA6       534       1     314     295     294    2979    2911    2981
CTRIA6       535       1     307     326     327    2983    2984    2985
CTRIA6       536       1     307     306     326    2953    2986    2983
CTRIA6       537       1     306     325     326    2987    2988    2986
CTRIA6       538       1     306     305     325    2956    2989    2987
CTRIA6       539       1     324    8890    8889    2990    8926    2991
CTRIA6       540       1     305     324     325    2992    2993    2989
CTRIA6       541       1     305    8890     324    2946    2990    2992
CTRIA6       542       1    9288     343    9287    2994    2995    9294
CTRIA6       543       1     323     343    9288    2996    2994    2925
CTRIA6       544       1     336     317     316    2997    2959    2998
CTRIA6       545       1     336     337     317    2999    3000    2997
CTRIA6       546       1     323     342     343    3001    3002    2996
CTRIA6       547       1     322     342     323    3003    3001    2932
CTRIA6       548       1     337     318     317    3004    2930    3000
CTRIA6       549       1     337     338     318    3005    3006    3004
CTRIA6       550       1     338     319     318    3007    2936    3006
CTRIA6       551       1     338     339     319    3008    3009    3007
CTRIA6       552       1     322     341     342    3010    3011    3003
CTRIA6       553       1     322     321     341    2941    3012    3010
CTRIA6       554       1     339     320     319    3013    2939    3009
CTRIA6       555       1     339     340     320    3014    3015    3013
CTRIA6       556       1     321     340     341    3016    3017    3012
CTRIA6       557       1     321     320     340    2944    3015    3016
CTRIA6       558       1     327     308     307    3018    2949    2985
CTRIA6       559       1     327     328     308    3019    3020    3018
CTRIA6       560       1     328     309     308    3021    2962    3020
CTRIA6       561       1     328     329     309    3022    3023    3021
CTRIA6       562       1     329     310     309    3024    2965    3023
CTRIA6       563       1     329     330     310    3025    3026    3024
CTRIA6       564       1     330     311     310    3027    2968    3026
CTRIA6       565       1     330     331     311    3028    3029    3027
CTRIA6       566       1     331     312     311    3030    2971    3029
CTRIA6       567       1     331     332     312    3031    3032    3030
CTRIA6       568       1     316     335     336    3033    3034    2998
CTRIA6       569       1     316     315     335    2974    3035    3033
CTRIA6       570       1     332     313     312    3036    2977    3032
CTRIA6       571       1     332     333     313    3037    3038    3036
CTRIA6       572       1     315     334     335    3039    3040    3035
CTRIA6       573       1     315     314     334    2980    3041    3039
CTRIA6       574       1     333     314     313    3042    2982    3038
CTRIA6       575       1     333     334     314    3043    3041    3042
CTRIA6       576       1    9069     366    9070    3044    3045    9071
CTRIA6       577       1     366     367     365    3046    3047    3048
CTRIA6       578       1     367    9069    9068    3049    9072    3050
CTRIA6       579       1     367     366    9069    3046    3044    3049
CTRIA6       580       1    9068     369     367    3051    3052    3050
CTRIA6       581       1    9068    9067     369    9073    3053    3051
CTRIA6       582       1    9067     368     369    3054    3055    3053
CTRIA6       583       1     368    9066     248    3056    3057    3058
CTRIA6       584       1     368    9067    9066    3054    9074    3056
CTRIA6       585       1     370     367     369    3059    3052    3060
CTRIA6       586       1     365     370     364    3061    3062    3063
CTRIA6       587       1     365     367     370    3047    3059    3061
CTRIA6       588       1     369     371     370    3064    3065    3060
CTRIA6       589       1     369     368     371    3055    3066    3064
CTRIA6       590       1     364     372     363    3067    3068    3069
CTRIA6       591       1     372     370     371    3070    3065    3071
CTRIA6       592       1     372     364     370    3067    3062    3070
CTRIA6       593       1     373     248     249    3072    3073    3074
CTRIA6       594       1     368     373     371    3075    3076    3066
CTRIA6       595       1     368     248     373    3058    3072    3075
CTRIA6       596       1     356     376     375    3077    3078    3079
CTRIA6       597       1     356     357     376    3080    3081    3077
CTRIA6       598       1     256     374     377    3082    3083    3084
CTRIA6       599       1     256     257     374    3085    3086    3082
CTRIA6       600       1     377     375     376    3087    3078    3088
CTRIA6       601       1     377     374     375    3083    3089    3087
CTRIA6       602       1     363     378     362    3090    3091    3092
CTRIA6       603       1     363     372     378    3068    3093    3090
CTRIA6       604       1     380     361     379    3094    3095    3096
CTRIA6       605       1     380     360     361    3097    3098    3094
CTRIA6       606       1     379     362     378    3099    3091    3100
CTRIA6       607       1     379     361     362    3095    3101    3099
CTRIA6       608       1     357     383     376    3102    3103    3081
CTRIA6       609       1     357     358     383    3104    3105    3102
CTRIA6       610       1     360     381     359    3106    3107    3108
CTRIA6       611       1     360     380     381    3097    3109    3106
CTRIA6       612       1     382     359     381    3110    3107    3111
CTRIA6       613       1     358     382     383    3112    3113    3105
CTRIA6       614       1     358     359     382    3114    3110    3112
CTRIA6       615       1     384     371     373    3115    3076    3116
CTRIA6       616       1     372     384     378    3117    3118    3093
CTRIA6       617       1     372     371     384    3071    3115    3117
CTRIA6       618       1     386     379     387    3119    3120    3121
CTRIA6       619       1     386     380     379    3122    3096    3119
CTRIA6       620       1     387     378     384    3123    3118    3124
CTRIA6       621       1     387     379     378    3120    3100    3123
CTRIA6       622       1     388     373     249    3125    3074    3126
CTRIA6       623       1     384     388     387    3127    3128    3124
CTRIA6       624       1     384     373     388    3116    3125    3127
CTRIA6       625       1     387     385     386    3129    3130    3121
CTRIA6       626       1     387     388     385    3128    3131    3129
CTRIA6       627       1     250     388     249    3132    3126    3133
CTRIA6       628       1     250     385     388    3134    3131    3132
CTRIA6       629       1     380     389     381    3135    3136    3109
CTRIA6       630       1     380     386     389    3122    3137    3135
CTRIA6       631       1     381     390     382    3138    3139    3111
CTRIA6       632       1     381     389     390    3136    3140    3138
CTRIA6       633       1     382     391     383    3141    3142    3113
CTRIA6       634       1     382     390     391    3139    3143    3141
CTRIA6       635       1     392     383     391    3144    3142    3145
CTRIA6       636       1     376     392     377    3146    3147    3088
CTRIA6       637       1     376     383     392    3103    3144    3146
CTRIA6       638       1     393     389     394    3148    3149    3150
CTRIA6       639       1     393     390     389    3151    3140    3148
CTRIA6       640       1     394     386     385    3152    3130    3153
CTRIA6       641       1     394     389     386    3149    3137    3152
CTRIA6       642       1     252     394     251    3154    3155    3156
CTRIA6       643       1     252     393     394    3157    3150    3154
CTRIA6       644       1     251     385     250    3158    3134    3159
CTRIA6       645       1     251     394     385    3155    3153    3158
CTRIA6       646       1     253     393     252    3160    3157    3161
CTRIA6       647       1     390     253     391    3162    3163    3143
CTRIA6       648       1     390     393     253    3151    3160    3162
CTRIA6       649       1     391     254     392    3164    3165    3145
CTRIA6       650       1     391     253     254    3163    3166    3164
CTRIA6       651       1     377     255     256    3167    3168    3084
CTRIA6       652       1     255     392     254    3169    3165    3170
CTRIA6       653       1     255     377     392    3167    3147    3169
CTRIA6       654       1     346     266     345    3171    3172    3173
CTRIA6       655       1     346     265     266    3174    3175    3171
CTRIA6       656       1     344     268     278    3176    3177    3178
CTRIA6       657       1     344     267     268    3179    3180    3176
CTRIA6       658       1     267     345     266    3181    3172    3182
CTRIA6       659       1     267     344     345    3179    3183    3181
CTRIA6       660       1     265     395     264    3184    3185    3186
CTRIA6       661       1     347     265     346    3187    3174    3188
CTRIA6       662       1     347     395     265    3189    3184    3187
CTRIA6       663       1     264     396     263    3190    3191    3192
CTRIA6       664       1     264     395     396    3185    3193    3190
CTRIA6       665       1     348     395     347    3194    3189    3195
CTRIA6       666       1     348     396     395    3196    3193    3194
CTRIA6       667       1     355     375     398    3197    3198    3199
CTRIA6       668       1     355     356     375    3200    3079    3197
CTRIA6       669       1     257     397     374    3201    3202    3086
CTRIA6       670       1     257     258     397    3203    3204    3201
CTRIA6       671       1     374     398     375    3205    3198    3089
CTRIA6       672       1     374     397     398    3202    3206    3205
CTRIA6       673       1     263     399     262    3207    3208    3209
CTRIA6       674       1     263     396     399    3191    3210    3207
CTRIA6       675       1     349     396     348    3211    3196    3212
CTRIA6       676       1     349     399     396    3213    3210    3211
CTRIA6       677       1     400     258     259    3214    3215    3216
CTRIA6       678       1     398     354     355    3217    3218    3199
CTRIA6       679       1     400     397     258    3219    3204    3214
CTRIA6       680       1     398     400     354    3220    3221    3217
CTRIA6       681       1     398     397     400    3206    3219    3220
CTRIA6       682       1     262     401     261    3222    3223    3224
CTRIA6       683       1     262     399     401    3208    3225    3222
CTRIA6       684       1     350     399     349    3226    3213    3227
CTRIA6       685       1     350     401     399    3228    3225    3226
CTRIA6       686       1     353     400     402    3229    3230    3231
CTRIA6       687       1     353     354     400    3232    3221    3229
CTRIA6       688       1     402     259     260    3233    3234    3235
CTRIA6       689       1     402     400     259    3230    3216    3233
CTRIA6       690       1     260     403     402    3236    3237    3235
CTRIA6       691       1     403     261     401    3238    3223    3239
CTRIA6       692       1     403     260     261    3236    3240    3238
CTRIA6       693       1     402     352     353    3241    3242    3231
CTRIA6       694       1     401     351     403    3243    3244    3239
CTRIA6       695       1     401     350     351    3228    3245    3243
CTRIA6       696       1     403     352     402    3246    3241    3237
CTRIA6       697       1     403     351     352    3244    3247    3246
CTRIA6       698       1     404     329     328    3248    3022    3249
CTRIA6       699       1     329     420     330    3250    3251    3025
CTRIA6       700       1     420     404     405    3252    3253    3254
CTRIA6       701       1     420     329     404    3250    3248    3252
CTRIA6       702       1     405     418     420    3255    3256    3254
CTRIA6       703       1     405     406     418    3257    3258    3255
CTRIA6       704       1     330     419     331    3259    3260    3028
CTRIA6       705       1     419     420     418    3261    3256    3262
CTRIA6       706       1     419     330     420    3259    3251    3261
CTRIA6       707       1     406     415     418    3263    3264    3258
CTRIA6       708       1     406     407     415    3265    3266    3263
CTRIA6       709       1     418     416     419    3267    3268    3262
CTRIA6       710       1     418     415     416    3264    3269    3267
CTRIA6       711       1     331     417     332    3270    3271    3031
CTRIA6       712       1     417     419     416    3272    3268    3273
CTRIA6       713       1     417     331     419    3270    3260    3272
CTRIA6       714       1     411     408     409    3274    3275    3276
CTRIA6       715       1     421     411     412    3277    3278    3279
CTRIA6       716       1     408     421     407    3280    3281    3282
CTRIA6       717       1     408     411     421    3274    3277    3280
CTRIA6       718       1     333     414     334    3283    3284    3043
CTRIA6       719       1     414     422     413    3285    3286    3287
CTRIA6       720       1     422     333     332    3288    3037    3289
CTRIA6       721       1     422     414     333    3285    3283    3288
CTRIA6       722       1     423     413     422    3290    3286    3291
CTRIA6       723       1     412     423     421    3292    3293    3279
CTRIA6       724       1     412     413     423    3294    3290    3292
CTRIA6       725       1     421     415     407    3295    3266    3281
CTRIA6       726       1     417     422     332    3296    3289    3271
CTRIA6       727       1     423     415     421    3297    3295    3293
CTRIA6       728       1     415     423     416    3297    3298    3269
CTRIA6       729       1     417     423     422    3299    3291    3296
CTRIA6       730       1     417     416     423    3273    3298    3299
CTRIA6       731       1     334     428     335    3300    3301    3040
CTRIA6       732       1     334     414     428    3284    3302    3300
CTRIA6       733       1     427     414     413    3303    3287    3304
CTRIA6       734       1     427     428     414    3305    3302    3303
CTRIA6       735       1     409     424     411    3306    3307    3276
CTRIA6       736       1     409     410     424    3308    3309    3306
CTRIA6       737       1     411     425     412    3310    3311    3278
CTRIA6       738       1     411     424     425    3307    3312    3310
CTRIA6       739       1     426     412     425    3313    3311    3314
CTRIA6       740       1     413     426     427    3315    3316    3304
CTRIA6       741       1     413     412     426    3294    3313    3315
CTRIA6       742       1     285     343     435    3317    3318    3319
CTRIA6       743       1     285    9287     343    3320    2995    3317
CTRIA6       744       1     337     430     431    3321    3322    3323
CTRIA6       745       1     337     336     430    2999    3324    3321
CTRIA6       746       1     336     429     430    3325    3326    3324
CTRIA6       747       1     429     335     428    3327    3301    3328
CTRIA6       748       1     429     336     335    3325    3034    3327
CTRIA6       749       1     431     338     337    3329    3005    3323
CTRIA6       750       1     431     432     338    3330    3331    3329
CTRIA6       751       1     435     342     434    3332    3333    3334
CTRIA6       752       1     435     343     342    3318    3002    3332
CTRIA6       753       1     432     339     338    3335    3008    3331
CTRIA6       754       1     432     433     339    3336    3337    3335
CTRIA6       755       1     433     434     341    3338    3339    3340
CTRIA6       756       1     341     434     342    3339    3333    3011
CTRIA6       757       1     433     340     339    3341    3014    3337
CTRIA6       758       1     433     341     340    3340    3017    3341
CTRIA6       759       1     438     436     437    3342    3343    3344
CTRIA6       760       1     436     432     431    3345    3330    3346
CTRIA6       761       1     433     439     434    3347    3348    3338
CTRIA6       762       1     438     432     436    3349    3345    3342
CTRIA6       763       1     438     433     432    3350    3336    3349
CTRIA6       764       1     437     282     438    3351    3352    3344
CTRIA6       765       1     437     281     282    3353    3354    3351
CTRIA6       766       1     435     284     285    3355    3356    3319
CTRIA6       767       1     438     439     433    3357    3347    3350
CTRIA6       768       1     283     438     282    3358    3352    3359
CTRIA6       769       1     283     439     438    3360    3357    3358
CTRIA6       770       1     439     435     434    3361    3334    3348
CTRIA6       771       1     284     439     283    3362    3360    3363
CTRIA6       772       1     284     435     439    3355    3361    3362
CTRIA6       773       1     440     281     437    3364    3353    3365
CTRIA6       774       1     278     442     344    3366    3367    3178
CTRIA6       775       1     440     280     281    3368    3369    3364
CTRIA6       776       1     440     441     280    3370    3371    3368
CTRIA6       777       1     441     279     280    3372    3373    3371
CTRIA6       778       1     279     442     278    3374    3366    3375
CTRIA6       779       1     279     441     442    3372    3376    3374
CTRIA6       780       1     443     427     426    3377    3316    3378
CTRIA6       781       1     428     446     429    3379    3380    3328
CTRIA6       782       1     446     427     443    3381    3377    3382
CTRIA6       783       1     446     428     427    3379    3305    3381
CTRIA6       784       1     446     447     429    3383    3384    3380
CTRIA6       785       1     447     444     445    3385    3386    3387
CTRIA6       786       1     444     446     443    3388    3382    3389
CTRIA6       787       1     444     447     446    3385    3383    3388
CTRIA6       788       1     440     448     445    3390    3391    3392
CTRIA6       789       1     448     437     436    3393    3343    3394
CTRIA6       790       1     448     440     437    3390    3365    3393
CTRIA6       791       1     449     431     430    3395    3322    3396
CTRIA6       792       1     436     449     448    3397    3398    3394
CTRIA6       793       1     436     431     449    3346    3395    3397
CTRIA6       794       1     448     447     445    3399    3387    3391
CTRIA6       795       1     447     430     429    3400    3326    3384
CTRIA6       796       1     449     447     448    3401    3399    3398
CTRIA6       797       1     449     430     447    3396    3400    3401
CTRIA6       798       1     441     450     442    3402    3403    3376
CTRIA6       799       1     450     445     444    3404    3386    3405
CTRIA6       800       1     445     441     440    3406    3370    3392
CTRIA6       801       1     445     450     441    3404    3402    3406
CTRIA6       802       1     444     452     450    3407    3408    3405
CTRIA6       803       1     444     443     452    3389    3409    3407
CTRIA6       804       1     443     451     452    3410    3411    3409
CTRIA6       805       1     451     426     425    3412    3314    3413
CTRIA6       806       1     451     443     426    3410    3378    3412
CTRIA6       807       1     442     453     344    3414    3415    3367
CTRIA6       808       1     453     450     452    3416    3408    3417
CTRIA6       809       1     453     442     450    3414    3403    3416
CTRIA6       810       1     452     455     453    3418    3419    3417
CTRIA6       811       1     454     425     424    3420    3312    3421
CTRIA6       812       1     451     455     452    3422    3418    3411
CTRIA6       813       1     454     451     425    3423    3413    3420
CTRIA6       814       1     454     455     451    3424    3422    3423
CTRIA6       815       1     453     345     344    3425    3183    3415
CTRIA6       816       1     453     455     345    3419    3426    3425
CTRIA6       817       1     456     455     454    3427    3424    3428
CTRIA6       818       1     455     346     345    3429    3173    3426
CTRIA6       819       1     455     456     346    3427    3430    3429
CTRIA6       820       1     457     348     347    3431    3195    3432
CTRIA6       821       1     410     457     424    3433    3434    3309
CTRIA6       822       1     410     348     457    3435    3431    3433
CTRIA6       823       1     454     457     456    3436    3437    3428
CTRIA6       824       1     454     424     457    3421    3434    3436
CTRIA6       825       1     456     347     346    3438    3188    3430
CTRIA6       826       1     456     457     347    3437    3432    3438
CTRIA6       827       1     404     463     405    3439    3440    3253
CTRIA6       828       1     465     404     328    3441    3249    3442
CTRIA6       829       1     463     465     462    3443    3444    3445
CTRIA6       830       1     463     404     465    3439    3441    3443
CTRIA6       831       1     462     464     461    3446    3447    3448
CTRIA6       832       1     462     465     464    3444    3449    3446
CTRIA6       833       1     327     465     328    3450    3442    3019
CTRIA6       834       1     327     464     465    3451    3449    3450
CTRIA6       835       1     458    8888    8887    3452    8927    3453
CTRIA6       836       1    8888     467    8889    3454    3455    8928
CTRIA6       837       1     467     458     459    3456    3457    3458
CTRIA6       838       1     467    8888     458    3454    3452    3456
CTRIA6       839       1     324     467     466    3459    3460    3461
CTRIA6       840       1     324    8889     467    2991    3455    3459
CTRIA6       841       1     466     459     460    3462    3463    3464
CTRIA6       842       1     466     467     459    3460    3458    3462
CTRIA6       843       1     460     468     466    3465    3466    3464
CTRIA6       844       1     468     461     464    3467    3447    3468
CTRIA6       845       1     468     460     461    3465    3469    3467
CTRIA6       846       1     464     326     468    3470    3471    3468
CTRIA6       847       1     464     327     326    3451    2984    3470
CTRIA6       848       1     466     325     324    3472    2993    3461
CTRIA6       849       1     325     468     326    3473    3471    2988
CTRIA6       850       1     325     466     468    3472    3466    3473
CTRIA6       851       1     462     474     463    3474    3475    3445
CTRIA6       852       1     462     473     474    3476    3477    3474
CTRIA6       853       1     405     475     406    3478    3479    3257
CTRIA6       854       1     475     463     474    3480    3475    3481
CTRIA6       855       1     475     405     463    3478    3440    3480
CTRIA6       856       1     469    8887    8886    3482    8929    3483
CTRIA6       857       1     458     469     470    3484    3485    3486
CTRIA6       858       1     458    8887     469    3453    3482    3484
CTRIA6       859       1     470     459     458    3487    3457    3486
CTRIA6       860       1     470     471     459    3488    3489    3487
CTRIA6       861       1     473     461     472    3490    3491    3492
CTRIA6       862       1     473     462     461    3476    3448    3490
CTRIA6       863       1     460     472     461    3493    3491    3469
CTRIA6       864       1     471     460     459    3494    3463    3489
CTRIA6       865       1     471     472     460    3495    3493    3494
CTRIA6       866       1     476    8886    8885    3496    8930    3497
CTRIA6       867       1     406     484     407    3498    3499    3265
CTRIA6       868       1     476     469    8886    3500    3483    3496
CTRIA6       869       1     476     477     469    3501    3502    3500
CTRIA6       870       1     484     475     483    3503    3504    3505
CTRIA6       871       1     484     406     475    3498    3479    3503
CTRIA6       872       1     477     470     469    3506    3485    3502
CTRIA6       873       1     477     478     470    3507    3508    3506
CTRIA6       874       1     483     474     482    3509    3510    3511
CTRIA6       875       1     483     475     474    3504    3481    3509
CTRIA6       876       1     478     471     470    3512    3488    3508
CTRIA6       877       1     478     479     471    3513    3514    3512
CTRIA6       878       1     482     473     481    3515    3516    3517
CTRIA6       879       1     482     474     473    3510    3477    3515
CTRIA6       880       1     479     472     471    3518    3495    3514
CTRIA6       881       1     479     480     472    3519    3520    3518
CTRIA6       882       1     472     481     473    3521    3516    3492
CTRIA6       883       1     472     480     481    3520    3522    3521
CTRIA6       884       1     481     491     482    3523    3524    3517
CTRIA6       885       1     481     490     491    3525    3526    3523
CTRIA6       886       1     482     492     483    3527    3528    3511
CTRIA6       887       1     482     491     492    3524    3529    3527
CTRIA6       888       1     483     493     484    3530    3531    3505
CTRIA6       889       1     483     492     493    3528    3532    3530
CTRIA6       890       1     407     494     408    3533    3534    3282
CTRIA6       891       1     494     484     493    3535    3531    3536
CTRIA6       892       1     494     407     484    3533    3499    3535
CTRIA6       893       1     477     486     487    3537    3538    3539
CTRIA6       894       1     477     476     486    3501    3540    3537
CTRIA6       895       1     485    8885    8884    3541    8931    3542
CTRIA6       896       1     476     485     486    3543    3544    3540
CTRIA6       897       1     476    8885     485    3497    3541    3543
CTRIA6       898       1     487     478     477    3545    3507    3539
CTRIA6       899       1     487     488     478    3546    3547    3545
CTRIA6       900       1     488     479     478    3548    3513    3547
CTRIA6       901       1     488     489     479    3549    3550    3548
CTRIA6       902       1     489     480     479    3551    3519    3550
CTRIA6       903       1     480     490     481    3552    3525    3522
CTRIA6       904       1     480     489     490    3551    3553    3552
CTRIA6       905       1     493     504     494    3554    3555    3536
CTRIA6       906       1     493     503     504    3556    3557    3554
CTRIA6       907       1     408     505     409    3558    3559    3275
CTRIA6       908       1     505     494     504    3560    3555    3561
CTRIA6       909       1     505     408     494    3558    3534    3560
CTRIA6       910       1     503     492     502    3562    3563    3564
CTRIA6       911       1     503     493     492    3556    3532    3562
CTRIA6       912       1     490     501     491    3565    3566    3526
CTRIA6       913       1     490     500     501    3567    3568    3565
CTRIA6       914       1     491     502     492    3569    3563    3529
CTRIA6       915       1     491     501     502    3566    3570    3569
CTRIA6       916       1     486     496     497    3571    3572    3573
CTRIA6       917       1     486     485     496    3544    3574    3571
CTRIA6       918       1     495    8884    8883    3575    8932    3576
CTRIA6       919       1     485     495     496    3577    3578    3574
CTRIA6       920       1     485    8884     495    3542    3575    3577
CTRIA6       921       1     497     487     486    3579    3538    3573
CTRIA6       922       1     497     498     487    3580    3581    3579
CTRIA6       923       1     489     500     490    3582    3567    3553
CTRIA6       924       1     498     488     487    3583    3546    3581
CTRIA6       925       1     498     499     488    3584    3585    3583
CTRIA6       926       1     489     499     500    3586    3587    3582
CTRIA6       927       1     489     488     499    3549    3585    3586
CTRIA6       928       1     410     349     348    3588    3212    3435
CTRIA6       929       1     506     499     498    3589    3584    3590
CTRIA6       930       1     515     506     507    3591    3592    3593
CTRIA6       931       1     499     515     500    3594    3595    3587
CTRIA6       932       1     499     506     515    3589    3591    3594
CTRIA6       933       1     500     514     501    3596    3597    3568
CTRIA6       934       1     500     515     514    3595    3598    3596
CTRIA6       935       1     513     507     508    3599    3600    3601
CTRIA6       936       1     515     513     514    3602    3603    3598
CTRIA6       937       1     515     507     513    3593    3599    3602
CTRIA6       938       1     510     508     509    3604    3605    3606
CTRIA6       939       1     513     510     511    3607    3608    3609
CTRIA6       940       1     513     508     510    3601    3604    3607
CTRIA6       941       1     501     512     502    3610    3611    3570
CTRIA6       942       1     501     514     512    3597    3612    3610
CTRIA6       943       1     511     514     513    3613    3603    3609
CTRIA6       944       1     511     512     514    3614    3612    3613
CTRIA6       945       1     516     353     352    3615    3242    3616
CTRIA6       946       1     353     518     354    3617    3618    3232
CTRIA6       947       1     518     516     517    3619    3620    3621
CTRIA6       948       1     518     353     516    3617    3615    3619
CTRIA6       949       1     517     511     518    3622    3623    3621
CTRIA6       950       1     517     512     511    3624    3614    3622
CTRIA6       951       1     509     519     510    3625    3626    3606
CTRIA6       952       1     519     355     354    3627    3218    3628
CTRIA6       953       1     519     509     355    3625    3629    3627
CTRIA6       954       1     518     519     354    3630    3628    3618
CTRIA6       955       1     510     518     511    3631    3623    3608
CTRIA6       956       1     510     519     518    3626    3630    3631
CTRIA6       957       1     522     512     517    3632    3624    3633
CTRIA6       958       1     502     522     503    3634    3635    3564
CTRIA6       959       1     502     512     522    3611    3632    3634
CTRIA6       960       1     503     521     504    3636    3637    3557
CTRIA6       961       1     503     522     521    3635    3638    3636
CTRIA6       962       1     520     517     516    3639    3620    3640
CTRIA6       963       1     522     520     521    3641    3642    3638
CTRIA6       964       1     522     517     520    3633    3639    3641
CTRIA6       965       1     516     523     520    3643    3644    3640
CTRIA6       966       1     523     352     351    3645    3247    3646
CTRIA6       967       1     523     516     352    3643    3616    3645
CTRIA6       968       1     409     525     410    3647    3648    3308
CTRIA6       969       1     505     525     409    3649    3647    3559
CTRIA6       970       1     525     526     527    3650    3651    3652
CTRIA6       971       1     525     505     526    3649    3653    3650
CTRIA6       972       1     524     521     520    3654    3642    3655
CTRIA6       973       1     524     526     521    3656    3657    3654
CTRIA6       974       1     504     526     505    3658    3653    3561
CTRIA6       975       1     504     521     526    3637    3657    3658
CTRIA6       976       1     525     349     410    3659    3588    3648
CTRIA6       977       1     525     350     349    3660    3227    3659
CTRIA6       978       1     527     526     524    3651    3656    3661
CTRIA6       979       1     527     350     525    3662    3660    3652
CTRIA6       980       1     351     527     523    3663    3664    3646
CTRIA6       981       1     351     350     527    3245    3662    3663
CTRIA6       982       1     523     524     520    3665    3655    3644
CTRIA6       983       1     523     527     524    3664    3661    3665
CTRIA6       984       1     528    8883    8882    3666    8933    3667
CTRIA6       985       1     495     528     529    3668    3669    3670
CTRIA6       986       1     495    8883     528    3576    3666    3668
CTRIA6       987       1     529     496     495    3671    3578    3670
CTRIA6       988       1     529     530     496    3672    3673    3671
CTRIA6       989       1     498     531     506    3674    3675    3590
CTRIA6       990       1     530     497     496    3676    3572    3673
CTRIA6       991       1     497     531     498    3677    3674    3580
CTRIA6       992       1     497     530     531    3676    3678    3677
CTRIA6       993       1     529     533     534    3679    3680    3681
CTRIA6       994       1     529     528     533    3669    3682    3679
CTRIA6       995       1     532    8882    8881    3683    8934    3684
CTRIA6       996       1     528     532     533    3685    3686    3682
CTRIA6       997       1     528    8882     532    3667    3683    3685
CTRIA6       998       1     534     530     529    3687    3672    3681
CTRIA6       999       1     534     535     530    3688    3689    3687
CTRIA6      1000       1     506     536     507    3690    3691    3592
CTRIA6      1001       1     506     531     536    3675    3692    3690
CTRIA6      1002       1     535     531     530    3693    3678    3689
CTRIA6      1003       1     535     536     531    3694    3692    3693
CTRIA6      1004       1     533     538     539    3695    3696    3697
CTRIA6      1005       1     533     532     538    3686    3698    3695
CTRIA6      1006       1     537    8881    8880    3699    8935    3700
CTRIA6      1007       1     532     537     538    3701    3702    3698
CTRIA6      1008       1     532    8881     537    3684    3699    3701
CTRIA6      1009       1     539     534     533    3703    3680    3697
CTRIA6      1010       1     539     540     534    3704    3705    3703
CTRIA6      1011       1     540     535     534    3706    3688    3705
CTRIA6      1012       1     540     541     535    3707    3708    3706
CTRIA6      1013       1     507     542     508    3709    3710    3600
CTRIA6      1014       1     507     536     542    3691    3711    3709
CTRIA6      1015       1     541     536     535    3712    3694    3708
CTRIA6      1016       1     541     542     536    3713    3711    3712
CTRIA6      1017       1     543    8880    8879    3714    8936    3715
CTRIA6      1018       1     537     543     544    3716    3717    3718
CTRIA6      1019       1     537    8880     543    3700    3714    3716
CTRIA6      1020       1     539     545     546    3719    3720    3721
CTRIA6      1021       1     539     538     545    3696    3722    3719
CTRIA6      1022       1     544     538     537    3723    3702    3718
CTRIA6      1023       1     544     545     538    3724    3722    3723
CTRIA6      1024       1     546     540     539    3725    3704    3721
CTRIA6      1025       1     546     547     540    3726    3727    3725
CTRIA6      1026       1     547     541     540    3728    3707    3727
CTRIA6      1027       1     547     548     541    3729    3730    3728
CTRIA6      1028       1     508     549     509    3731    3732    3605
CTRIA6      1029       1     508     542     549    3710    3733    3731
CTRIA6      1030       1     548     542     541    3734    3713    3730
CTRIA6      1031       1     548     549     542    3735    3733    3734
CTRIA6      1032       1     360     551     361    3736    3737    3098
CTRIA6      1033       1     551     552     550    3738    3739    3740
CTRIA6      1034       1     552     360     359    3741    3108    3742
CTRIA6      1035       1     552     551     360    3738    3736    3741
CTRIA6      1036       1     553     550     552    3743    3739    3744
CTRIA6      1037       1     546     553     547    3745    3746    3726
CTRIA6      1038       1     546     550     553    3747    3743    3745
CTRIA6      1039       1     552     554     553    3748    3749    3744
CTRIA6      1040       1     554     359     358    3750    3114    3751
CTRIA6      1041       1     554     552     359    3748    3742    3750
CTRIA6      1042       1     509     356     355    3752    3200    3629
CTRIA6      1043       1     549     356     509    3753    3752    3732
CTRIA6      1044       1     555     549     548    3754    3735    3755
CTRIA6      1045       1     356     555     357    3756    3757    3080
CTRIA6      1046       1     356     549     555    3753    3754    3756
CTRIA6      1047       1     556     553     554    3758    3749    3759
CTRIA6      1048       1     547     556     548    3760    3761    3729
CTRIA6      1049       1     547     553     556    3746    3758    3760
CTRIA6      1050       1     556     555     548    3762    3755    3761
CTRIA6      1051       1     555     358     357    3763    3104    3757
CTRIA6      1052       1     358     556     554    3764    3759    3751
CTRIA6      1053       1     358     555     556    3763    3762    3764
CTRIA6      1054       1     550     558     551    3765    3766    3740
CTRIA6      1055       1     545     550     546    3767    3747    3720
CTRIA6      1056       1     557     545     544    3768    3724    3769
CTRIA6      1057       1     545     558     550    3770    3765    3767
CTRIA6      1058       1     545     557     558    3768    3771    3770
CTRIA6      1059       1     361     559     362    3772    3773    3101
CTRIA6      1060       1     559     551     558    3774    3766    3775
CTRIA6      1061       1     559     361     551    3772    3737    3774
CTRIA6      1062       1     558     561     559    3776    3777    3775
CTRIA6      1063       1     544     560     557    3778    3779    3769
CTRIA6      1064       1     544     543     560    3717    3780    3778
CTRIA6      1065       1     557     561     558    3781    3776    3771
CTRIA6      1066       1     557     560     561    3779    3782    3781
CTRIA6      1067       1     363     563     364    3783    3784    3069
CTRIA6      1068       1     564     363     362    3785    3092    3786
CTRIA6      1069       1     563     564     562    3787    3788    3789
CTRIA6      1070       1     563     363     564    3783    3785    3787
CTRIA6      1071       1     562     561     560    3790    3782    3791
CTRIA6      1072       1     562     564     561    3788    3792    3790
CTRIA6      1073       1     559     564     362    3793    3786    3773
CTRIA6      1074       1     559     561     564    3777    3792    3793
CTRIA6      1075       1     567     560     543    3794    3780    3795
CTRIA6      1076       1     562     567     566    3796    3797    3798
CTRIA6      1077       1     562     560     567    3791    3794    3796
CTRIA6      1078       1     565    8878    8877    3799    8937    3800
CTRIA6      1079       1    8879     567     543    3801    3795    3715
CTRIA6      1080       1     568    8879    8878    3802    8938    3803
CTRIA6      1081       1     568     567    8879    3804    3801    3802
CTRIA6      1082       1     565     568    8878    3805    3803    3799
CTRIA6      1083       1     568     566     567    3806    3797    3804
CTRIA6      1084       1     568     565     566    3805    3807    3806
CTRIA6      1085       1     570     566     565    3808    3807    3809
CTRIA6      1086       1     566     563     562    3810    3789    3798
CTRIA6      1087       1     566     570     563    3808    3811    3810
CTRIA6      1088       1     569    8877    8876    3812    8939    3813
CTRIA6      1089       1     565     569     570    3814    3815    3809
CTRIA6      1090       1     565    8877     569    3800    3812    3814
CTRIA6      1091       1     364     571     365    3816    3817    3063
CTRIA6      1092       1     570     364     563    3818    3784    3811
CTRIA6      1093       1     570     571     364    3819    3816    3818
CTRIA6      1094       1     571     569     572    3820    3821    3822
CTRIA6      1095       1     571     570     569    3819    3815    3820
CTRIA6      1096       1     572    8876    8875    3823    8940    3824
CTRIA6      1097       1     572     569    8876    3821    3813    3823
CTRIA6      1098       1     365     572     366    3825    3826    3048
CTRIA6      1099       1     365     571     572    3817    3822    3825
CTRIA6      1100       1    9070    8875    9334    3827    8941    9075
CTRIA6      1101       1    8875     366     572    3828    3826    3824
CTRIA6      1102       1    8875    9070     366    3827    3045    3828
CTRIA6      1103       1     285    9286    9287    3829    9295    3320
CTRIA6      1104       1    9285     283     277    3830    3831    3832
CTRIA6      1105       1    9285     284     283    3833    3363    3830
CTRIA6      1106       1     284    9286     285    3834    3829    3356
CTRIA6      1107       1     284    9285    9286    3833    9296    3834
CTRIA6      1108       1     269     278     268    3835    3177    3836
CTRIA6      1109       1     278     274     279    3837    3838    3375
CTRIA6      1110       1     278     269     274    3835    3839    3837
CTRIA6      1111       1     279     275     280    3840    3841    3373
CTRIA6      1112       1     279     274     275    3838    3842    3840
CTRIA6      1113       1     277     282     276    3843    3844    3845
CTRIA6      1114       1     277     283     282    3831    3359    3843
CTRIA6      1115       1     281     276     282    3846    3844    3354
CTRIA6      1116       1     276     280     275    3847    3841    3848
CTRIA6      1117       1     276     281     280    3846    3369    3847
CTRIA6      1118       1     273     573     272    3849    3850    3851
CTRIA6      1119       1     573    9282    9283    3852    9297    3853
CTRIA6      1120       1    9282     273    9281    3854    3855    9298
CTRIA6      1121       1    9282     573     273    3852    3849    3854
CTRIA6      1122       1     270     274     269    3856    3839    3857
CTRIA6      1123       1     574     270     271    3858    3859    3860
CTRIA6      1124       1     274     574     275    3861    3862    3842
CTRIA6      1125       1     274     270     574    3856    3858    3861
CTRIA6      1126       1     575     275     574    3863    3862    3864
CTRIA6      1127       1    9284     277     576    3865    3866    3867
CTRIA6      1128       1    9284    9285     277    9299    3832    3865
CTRIA6      1129       1     575     276     275    3868    3848    3863
CTRIA6      1130       1     276     576     277    3869    3866    3845
CTRIA6      1131       1     276     575     576    3868    3870    3869
CTRIA6      1132       1     574     577     575    3871    3872    3864
CTRIA6      1133       1     577     271     272    3873    3874    3875
CTRIA6      1134       1     577     574     271    3871    3860    3873
CTRIA6      1135       1     573     577     272    3876    3875    3850
CTRIA6      1136       1    9283     576     573    3877    3878    3853
CTRIA6      1137       1    9283    9284     576    9300    3867    3877
CTRIA6      1138       1     573     575     577    3879    3872    3876
CTRIA6      1139       1     573     576     575    3878    3870    3879
CTRIA6      1140       1     600    9273    9274    3880    9301    3881
CTRIA6      1141       1      38     601     599    3882    3883    3884
CTRIA6      1142       1      38      37     601    2178    3885    3882
CTRIA6      1143       1     600      37    9273    3886    2172    3880
CTRIA6      1144       1     600     601      37    3887    3885    3886
CTRIA6      1145       1     578    9276    9277    3888    9302    3889
CTRIA6      1146       1    9274     602     600    3890    3891    3881
CTRIA6      1147       1    9274    9275     602    9303    3892    3890
CTRIA6      1148       1     602    9276     578    3893    3888    3894
CTRIA6      1149       1     602    9275    9276    3892    9304    3893
CTRIA6      1150       1     603     600     602    3895    3891    3896
CTRIA6      1151       1     599     603     598    3897    3898    3899
CTRIA6      1152       1     603     601     600    3900    3887    3895
CTRIA6      1153       1     603     599     601    3897    3883    3900
CTRIA6      1154       1     598    1118     581    3901    3902    3903
CTRIA6      1155       1     598     603     580    3898    3904    3905
CTRIA6      1156       1     603     579     580    3906    3907    3904
CTRIA6      1157       1     579     602     578    3908    3894    3909
CTRIA6      1158       1     579     603     602    3906    3896    3908
CTRIA6      1159       1     599      39      38    3910    2175    3884
CTRIA6      1160       1     605     599     598    3911    3899    3912
CTRIA6      1161       1      39     605      40    3913    3914    2194
CTRIA6      1162       1      39     599     605    3910    3911    3913
CTRIA6      1163       1      40     604      41    3915    3916    2189
CTRIA6      1164       1     605     598     581    3912    3903    3917
CTRIA6      1165       1     605     604      40    3918    3915    3914
CTRIA6      1166       1     605     581     604    3917    3919    3918
CTRIA6      1167       1     585      44     584    3920    3921    3922
CTRIA6      1168       1     585      45      44    3923    2791    3920
CTRIA6      1169       1      43     584      44    3924    3921    2526
CTRIA6      1170       1     584     606     583    3925    3926    3927
CTRIA6      1171       1     584      43     606    3924    3928    3925
CTRIA6      1172       1      41     607      42    3929    3930    2163
CTRIA6      1173       1      41     604     607    3916    3931    3929
CTRIA6      1174       1     582     604     581    3932    3919    3933
CTRIA6      1175       1     582     607     604    3934    3931    3932
CTRIA6      1176       1      42     606      43    3935    3928    2647
CTRIA6      1177       1      42     607     606    3930    3936    3935
CTRIA6      1178       1     583     607     582    3937    3934    3938
CTRIA6      1179       1     583     606     607    3926    3936    3937
CTRIA6      1180       1      45     586      46    3939    3940    2765
CTRIA6      1181       1      45     585     586    3923    3941    3939
CTRIA6      1182       1      46     587      47    3942    3943    2760
CTRIA6      1183       1      46     586     587    3940    3944    3942
CTRIA6      1184       1     588      47     587    3945    3943    3946
CTRIA6      1185       1      47     608      48    3947    3948    2762
CTRIA6      1186       1      47     588     608    3945    3949    3947
CTRIA6      1187       1      48     609      49    3950    3951    2756
CTRIA6      1188       1      48     608     609    3948    3952    3950
CTRIA6      1189       1     589     608     588    3953    3949    3954
CTRIA6      1190       1     589     609     608    3955    3952    3953
CTRIA6      1191       1      49     610      50    3956    3957    2364
CTRIA6      1192       1      49     609     610    3951    3958    3956
CTRIA6      1193       1     590     609     589    3959    3955    3960
CTRIA6      1194       1     590     610     609    3961    3958    3959
CTRIA6      1195       1      50     611      51    3962    3963    2415
CTRIA6      1196       1      50     610     611    3957    3964    3962
CTRIA6      1197       1     591     610     590    3965    3961    3966
CTRIA6      1198       1     591     611     610    3967    3964    3965
CTRIA6      1199       1      51     612      52    3968    3969    2429
CTRIA6      1200       1      51     611     612    3963    3970    3968
CTRIA6      1201       1     592     611     591    3971    3967    3972
CTRIA6      1202       1     592     612     611    3973    3970    3971
CTRIA6      1203       1      52     613      53    3974    3975    2446
CTRIA6      1204       1      52     612     613    3969    3976    3974
CTRIA6      1205       1     593     612     592    3977    3973    3978
CTRIA6      1206       1     593     613     612    3979    3976    3977
CTRIA6      1207       1      53     614      54    3980    3981    2491
CTRIA6      1208       1      53     613     614    3975    3982    3980
CTRIA6      1209       1     594     613     593    3983    3979    3984
CTRIA6      1210       1     594     614     613    3985    3982    3983
CTRIA6      1211       1      54     615      55    3986    3987    2521
CTRIA6      1212       1      54     614     615    3981    3988    3986
CTRIA6      1213       1     595     614     594    3989    3985    3990
CTRIA6      1214       1     595     615     614    3991    3988    3989
CTRIA6      1215       1    9139     597    9140    3992    3993    9170
CTRIA6      1216       1     597     616     596    3994    3995    3996
CTRIA6      1217       1     616    9139    9138    3997    9171    3998
CTRIA6      1218       1     616     597    9139    3994    3992    3997
CTRIA6      1219       1     596     615     595    3999    3991    4000
CTRIA6      1220       1     596     616     615    3995    4001    3999
CTRIA6      1221       1      55     616    9138    4002    3998    2516
CTRIA6      1222       1      55     615     616    3987    4001    4002
CTRIA6      1223       1     697     662     663    4003    4004    4005
CTRIA6      1224       1     662     699     661    4006    4007    4008
CTRIA6      1225       1     699     697     698    4009    4010    4011
CTRIA6      1226       1     699     662     697    4006    4003    4009
CTRIA6      1227       1     661     688     660    4012    4013    4014
CTRIA6      1228       1     698     687     699    4015    4016    4011
CTRIA6      1229       1     698     686     687    4017    4018    4015
CTRIA6      1230       1     699     688     661    4019    4012    4007
CTRIA6      1231       1     699     687     688    4016    4020    4019
CTRIA6      1232       1     686     696     685    4021    4022    4023
CTRIA6      1233       1     694     663     664    4024    4025    4026
CTRIA6      1234       1     697     694     695    4027    4028    4029
CTRIA6      1235       1     697     663     694    4005    4024    4027
CTRIA6      1236       1     698     696     686    4030    4021    4017
CTRIA6      1237       1     695     698     697    4031    4010    4029
CTRIA6      1238       1     695     696     698    4032    4030    4031
CTRIA6      1239       1     689     665     666    4033    4034    4035
CTRIA6      1240       1     665     700     664    4036    4037    4038
CTRIA6      1241       1     700     689     690    4039    4040    4041
CTRIA6      1242       1     700     665     689    4036    4033    4039
CTRIA6      1243       1     693     684     701    4042    4043    4044
CTRIA6      1244       1     693     683     684    4045    4046    4042
CTRIA6      1245       1     701     685     696    4047    4022    4048
CTRIA6      1246       1     701     684     685    4043    4049    4047
CTRIA6      1247       1     701     692     693    4050    4051    4044
CTRIA6      1248       1     701     702     692    4052    4053    4050
CTRIA6      1249       1     702     696     695    4054    4032    4055
CTRIA6      1250       1     702     701     696    4052    4048    4054
CTRIA6      1251       1     690     703     700    4056    4057    4041
CTRIA6      1252       1     690     691     703    4058    4059    4056
CTRIA6      1253       1     702     691     692    4060    4061    4053
CTRIA6      1254       1     702     703     691    4062    4059    4060
CTRIA6      1255       1     700     694     664    4063    4026    4037
CTRIA6      1256       1     700     703     694    4057    4064    4063
CTRIA6      1257       1     695     703     702    4065    4062    4055
CTRIA6      1258       1     695     694     703    4028    4064    4065
CTRIA6      1259       1     672     667     668    4066    4067    4068
CTRIA6      1260       1     667     704     666    4069    4070    4071
CTRIA6      1261       1     704     672     673    4072    4073    4074
CTRIA6      1262       1     704     667     672    4069    4066    4072
CTRIA6      1263       1     678     682     705    4075    4076    4077
CTRIA6      1264       1     678     679     682    4078    4079    4075
CTRIA6      1265       1     705     683     693    4080    4045    4081
CTRIA6      1266       1     705     682     683    4076    4082    4080
CTRIA6      1267       1     704     689     666    4083    4035    4070
CTRIA6      1268       1     704     706     689    4084    4085    4083
CTRIA6      1269       1     706     673     674    4086    4087    4088
CTRIA6      1270       1     706     704     673    4084    4074    4086
CTRIA6      1271       1     677     705     707    4089    4090    4091
CTRIA6      1272       1     677     678     705    4092    4077    4089
CTRIA6      1273       1     707     693     692    4093    4051    4094
CTRIA6      1274       1     707     705     693    4090    4081    4093
CTRIA6      1275       1     707     676     677    4095    4096    4091
CTRIA6      1276       1     707     708     676    4097    4098    4095
CTRIA6      1277       1     708     692     691    4099    4061    4100
CTRIA6      1278       1     708     707     692    4097    4094    4099
CTRIA6      1279       1     674     709     706    4101    4102    4088
CTRIA6      1280       1     674     675     709    4103    4104    4101
CTRIA6      1281       1     708     675     676    4105    4106    4098
CTRIA6      1282       1     708     709     675    4107    4104    4105
CTRIA6      1283       1     706     690     689    4108    4040    4085
CTRIA6      1284       1     706     709     690    4102    4109    4108
CTRIA6      1285       1     691     709     708    4110    4107    4100
CTRIA6      1286       1     691     690     709    4058    4109    4110
CTRIA6      1287       1     658     650     651    4111    4112    4113
CTRIA6      1288       1     713     658     659    4114    4115    4116
CTRIA6      1289       1     713     650     658    4117    4111    4114
CTRIA6      1290       1     712     660     688    4118    4013    4119
CTRIA6      1291       1     659     712     713    4120    4121    4116
CTRIA6      1292       1     659     660     712    4122    4118    4120
CTRIA6      1293       1     688     715     712    4123    4124    4119
CTRIA6      1294       1     686     714     687    4125    4126    4018
CTRIA6      1295       1     686     710     714    4127    4128    4125
CTRIA6      1296       1     687     715     688    4129    4123    4020
CTRIA6      1297       1     687     714     715    4126    4130    4129
CTRIA6      1298       1     712     717     713    4131    4132    4121
CTRIA6      1299       1     717     715     716    4133    4134    4135
CTRIA6      1300       1     717     712     715    4131    4124    4133
CTRIA6      1301       1     713     649     650    4136    4137    4117
CTRIA6      1302       1     716     648     717    4138    4139    4135
CTRIA6      1303       1     716     647     648    4140    4141    4138
CTRIA6      1304       1     717     649     713    4142    4136    4132
CTRIA6      1305       1     717     648     649    4139    4143    4142
CTRIA6      1306       1     710     718     714    4144    4145    4128
CTRIA6      1307       1     710     711     718    4146    4147    4144
CTRIA6      1308       1     646     711     645    4148    4149    4150
CTRIA6      1309       1     646     718     711    4151    4147    4148
CTRIA6      1310       1     714     716     715    4152    4134    4130
CTRIA6      1311       1     714     718     716    4145    4153    4152
CTRIA6      1312       1     647     718     646    4154    4151    4155
CTRIA6      1313       1     647     716     718    4140    4153    4154
CTRIA6      1314       1     679     720     682    4156    4157    4079
CTRIA6      1315       1     679     680     720    4158    4159    4156
CTRIA6      1316       1     641     681     640    4160    4161    4162
CTRIA6      1317       1     641     719     681    4163    4164    4160
CTRIA6      1318       1     680     719     720    4165    4166    4159
CTRIA6      1319       1     680     681     719    4167    4164    4165
CTRIA6      1320       1     685     710     686    4168    4127    4023
CTRIA6      1321       1     685     723     710    4169    4170    4168
CTRIA6      1322       1     723     684     721    4171    4172    4173
CTRIA6      1323       1     723     685     684    4169    4049    4171
CTRIA6      1324       1     645     724     644    4174    4175    4176
CTRIA6      1325       1     645     711     724    4149    4177    4174
CTRIA6      1326       1     723     711     710    4178    4146    4170
CTRIA6      1327       1     723     724     711    4179    4177    4178
CTRIA6      1328       1     644     722     643    4180    4181    4182
CTRIA6      1329       1     644     724     722    4175    4183    4180
CTRIA6      1330       1     721     724     723    4184    4179    4173
CTRIA6      1331       1     721     722     724    4185    4183    4184
CTRIA6      1332       1     642     719     641    4186    4163    4187
CTRIA6      1333       1     642     725     719    4188    4189    4186
CTRIA6      1334       1     725     643     722    4190    4181    4191
CTRIA6      1335       1     725     642     643    4188    4192    4190
CTRIA6      1336       1     682     726     683    4193    4194    4082
CTRIA6      1337       1     682     720     726    4157    4195    4193
CTRIA6      1338       1     725     720     719    4196    4166    4189
CTRIA6      1339       1     725     726     720    4197    4195    4196
CTRIA6      1340       1     683     721     684    4198    4172    4046
CTRIA6      1341       1     683     726     721    4194    4199    4198
CTRIA6      1342       1     722     726     725    4200    4197    4191
CTRIA6      1343       1     722     721     726    4185    4199    4200
CTRIA6      1344       1     730     668     669    4201    4202    4203
CTRIA6      1345       1     673     731     729    4204    4205    4206
CTRIA6      1346       1     673     672     731    4073    4207    4204
CTRIA6      1347       1     730     672     668    4208    4068    4201
CTRIA6      1348       1     730     731     672    4209    4207    4208
CTRIA6      1349       1     670     733     669    4210    4211    4212
CTRIA6      1350       1     734     670     671    4213    4214    4215
CTRIA6      1351       1     733     734     732    4216    4217    4218
CTRIA6      1352       1     733     670     734    4210    4213    4216
CTRIA6      1353       1    9059     671    9060    4219    4220    9076
CTRIA6      1354       1     732    9058    9057    4221    9077    4222
CTRIA6      1355       1     732     734    9058    4217    4223    4221
CTRIA6      1356       1    9059     734     671    4224    4215    4219
CTRIA6      1357       1    9059    9058     734    9078    4223    4224
CTRIA6      1358       1     729     736     728    4225    4226    4227
CTRIA6      1359       1     733     730     669    4228    4203    4211
CTRIA6      1360       1     733     735     730    4229    4230    4228
CTRIA6      1361       1     731     736     729    4231    4225    4205
CTRIA6      1362       1     735     731     730    4232    4209    4230
CTRIA6      1363       1     735     736     731    4233    4231    4232
CTRIA6      1364       1     727    9055    9054    4234    9079    4235
CTRIA6      1365       1     727     737    9055    4236    4237    4234
CTRIA6      1366       1     737     728     736    4238    4226    4239
CTRIA6      1367       1     737     727     728    4236    4240    4238
CTRIA6      1368       1    9057     738     732    4241    4242    4222
CTRIA6      1369       1    9057    9056     738    9080    4243    4241
CTRIA6      1370       1     737    9056    9055    4244    9081    4237
CTRIA6      1371       1     737     738    9056    4245    4243    4244
CTRIA6      1372       1     732     735     733    4246    4229    4218
CTRIA6      1373       1     732     738     735    4242    4247    4246
CTRIA6      1374       1     736     738     737    4248    4245    4239
CTRIA6      1375       1     736     735     738    4233    4247    4248
CTRIA6      1376       1     744     681     739    4249    4250    4251
CTRIA6      1377       1     640     744     639    4252    4253    4254
CTRIA6      1378       1     640     681     744    4161    4249    4252
CTRIA6      1379       1     639     743     638    4255    4256    4257
CTRIA6      1380       1     639     744     743    4253    4258    4255
CTRIA6      1381       1     742     739     740    4259    4260    4261
CTRIA6      1382       1     744     742     743    4262    4263    4258
CTRIA6      1383       1     744     739     742    4251    4259    4262
CTRIA6      1384       1    9046     637     745    4264    4265    4266
CTRIA6      1385       1    9046    9045     637    9082    4267    4264
CTRIA6      1386       1     745     638     743    4268    4256    4269
CTRIA6      1387       1     745     637     638    4265    4270    4268
CTRIA6      1388       1    9049     741    9050    4271    4272    9083
CTRIA6      1389       1     741     746     740    4273    4274    4275
CTRIA6      1390       1     746    9049    9048    4276    9084    4277
CTRIA6      1391       1     746     741    9049    4273    4271    4276
CTRIA6      1392       1     743     747     745    4278    4279    4269
CTRIA6      1393       1     743     742     747    4263    4280    4278
CTRIA6      1394       1     746     742     740    4281    4261    4274
CTRIA6      1395       1     746     747     742    4282    4280    4281
CTRIA6      1396       1     745    9047    9046    4283    9085    4266
CTRIA6      1397       1     745     747    9047    4279    4284    4283
CTRIA6      1398       1    9048     747     746    4285    4282    4277
CTRIA6      1399       1    9048    9047     747    9086    4284    4285
CTRIA6      1400       1     740     749     741    4286    4287    4275
CTRIA6      1401       1     750     740     739    4288    4260    4289
CTRIA6      1402       1     749     750     748    4290    4291    4292
CTRIA6      1403       1     749     740     750    4286    4288    4290
CTRIA6      1404       1     680     739     681    4293    4250    4167
CTRIA6      1405       1     748     679     678    4294    4078    4295
CTRIA6      1406       1     748     750     679    4291    4296    4294
CTRIA6      1407       1     680     750     739    4297    4289    4293
CTRIA6      1408       1     680     679     750    4158    4296    4297
CTRIA6      1409       1     678     751     748    4298    4299    4295
CTRIA6      1410       1     678     677     751    4092    4300    4298
CTRIA6      1411       1     741     753    9050    4301    4302    4272
CTRIA6      1412       1     748     752     749    4303    4304    4292
CTRIA6      1413       1     748     751     752    4299    4305    4303
CTRIA6      1414       1     749     753     741    4306    4301    4287
CTRIA6      1415       1     749     752     753    4304    4307    4306
CTRIA6      1416       1     754     752     751    4308    4305    4309
CTRIA6      1417       1     756     754     755    4310    4311    4312
CTRIA6      1418       1     752     756     753    4313    4314    4307
CTRIA6      1419       1     752     754     756    4308    4310    4313
CTRIA6      1420       1    9052     755    9053    4315    4316    9087
CTRIA6      1421       1     753    9051    9050    4317    9088    4302
CTRIA6      1422       1     753     756    9051    4314    4318    4317
CTRIA6      1423       1    9052     756     755    4319    4312    4315
CTRIA6      1424       1    9052    9051     756    9089    4318    4319
CTRIA6      1425       1     757    9053     755    4320    4316    4321
CTRIA6      1426       1    9054     757     727    4322    4323    4235
CTRIA6      1427       1    9054    9053     757    9090    4320    4322
CTRIA6      1428       1     751     758     754    4324    4325    4309
CTRIA6      1429       1     758     677     676    4326    4096    4327
CTRIA6      1430       1     758     751     677    4324    4300    4326
CTRIA6      1431       1     759     754     758    4328    4325    4329
CTRIA6      1432       1     755     759     757    4330    4331    4321
CTRIA6      1433       1     755     754     759    4311    4328    4330
CTRIA6      1434       1     760     757     759    4332    4331    4333
CTRIA6      1435       1     727     760     728    4334    4335    4240
CTRIA6      1436       1     727     757     760    4323    4332    4334
CTRIA6      1437       1     758     761     759    4336    4337    4329
CTRIA6      1438       1     761     676     675    4338    4106    4339
CTRIA6      1439       1     761     758     676    4336    4327    4338
CTRIA6      1440       1     728     762     729    4340    4341    4227
CTRIA6      1441       1     728     760     762    4335    4342    4340
CTRIA6      1442       1     761     760     759    4343    4333    4337
CTRIA6      1443       1     761     762     760    4344    4342    4343
CTRIA6      1444       1     729     674     673    4345    4087    4206
CTRIA6      1445       1     729     762     674    4341    4346    4345
CTRIA6      1446       1     675     762     761    4347    4344    4339
CTRIA6      1447       1     675     674     762    4103    4346    4347
CTRIA6      1448       1     772    9064    9063    4348    9091    4349
CTRIA6      1449       1    9064     774    9065    4350    4351    9092
CTRIA6      1450       1     774     772     773    4352    4353    4354
CTRIA6      1451       1     774    9064     772    4350    4348    4352
CTRIA6      1452       1     773     249     774    4355    4356    4354
CTRIA6      1453       1     773     250     249    4357    3133    4355
CTRIA6      1454       1    9065     248    9066    4358    3057    9093
CTRIA6      1455       1     248     774     249    4359    4356    3073
CTRIA6      1456       1     248    9065     774    4358    4351    4359
CTRIA6      1457       1     771     251     775    4360    4361    4362
CTRIA6      1458       1     771     252     251    4363    3156    4360
CTRIA6      1459       1     775     250     773    4364    4357    4365
CTRIA6      1460       1     775     251     250    4361    3159    4364
CTRIA6      1461       1     770     775     776    4366    4367    4368
CTRIA6      1462       1     770     771     775    4369    4362    4366
CTRIA6      1463       1     776     773     772    4370    4353    4371
CTRIA6      1464       1     776     775     773    4367    4365    4370
CTRIA6      1465       1     768    9062    9061    4372    9094    4373
CTRIA6      1466       1    9062     777    9063    4374    4375    9095
CTRIA6      1467       1     777     768     769    4376    4377    4378
CTRIA6      1468       1     777    9062     768    4374    4372    4376
CTRIA6      1469       1     772     777     776    4379    4380    4371
CTRIA6      1470       1     772    9063     777    4349    4375    4379
CTRIA6      1471       1     776     769     770    4381    4382    4368
CTRIA6      1472       1     776     777     769    4380    4378    4381
CTRIA6      1473       1     781     252     771    4383    4363    4384
CTRIA6      1474       1     253     781     767    4385    4386    4387
CTRIA6      1475       1     253     252     781    3161    4383    4385
CTRIA6      1476       1     778     770     769    4388    4382    4389
CTRIA6      1477       1     770     782     771    4390    4391    4369
CTRIA6      1478       1     782     778     779    4392    4393    4394
CTRIA6      1479       1     782     770     778    4390    4388    4392
CTRIA6      1480       1     767     783     766    4395    4396    4397
CTRIA6      1481       1     767     781     783    4386    4398    4395
CTRIA6      1482       1     782     781     771    4399    4384    4391
CTRIA6      1483       1     782     783     781    4400    4398    4399
CTRIA6      1484       1     779     783     782    4401    4400    4394
CTRIA6      1485       1     780     783     779    4402    4401    4403
CTRIA6      1486       1     766     780     765    4404    4405    4406
CTRIA6      1487       1     766     783     780    4396    4402    4404
CTRIA6      1488       1    9061     784     768    4407    4408    4373
CTRIA6      1489       1     784    9060     671    4409    4220    4410
CTRIA6      1490       1     784    9061    9060    4407    9096    4409
CTRIA6      1491       1     768     786     769    4411    4412    4377
CTRIA6      1492       1     671     785     784    4413    4414    4410
CTRIA6      1493       1     671     670     785    4214    4415    4413
CTRIA6      1494       1     784     786     768    4416    4411    4408
CTRIA6      1495       1     784     785     786    4414    4417    4416
CTRIA6      1496       1     787     670     669    4418    4212    4419
CTRIA6      1497       1     778     786     788    4420    4421    4422
CTRIA6      1498       1     778     769     786    4389    4412    4420
CTRIA6      1499       1     787     785     670    4423    4415    4418
CTRIA6      1500       1     785     788     786    4424    4421    4417
CTRIA6      1501       1     785     787     788    4423    4425    4424
CTRIA6      1502       1     790     780     789    4426    4427    4428
CTRIA6      1503       1     765     790     764    4429    4430    4431
CTRIA6      1504       1     765     780     790    4405    4426    4429
CTRIA6      1505       1     788     779     778    4432    4393    4422
CTRIA6      1506       1     779     789     780    4433    4427    4403
CTRIA6      1507       1     779     788     789    4432    4434    4433
CTRIA6      1508       1     787     789     788    4435    4434    4425
CTRIA6      1509       1     787     791     789    4436    4437    4435
CTRIA6      1510       1     791     669     668    4438    4202    4439
CTRIA6      1511       1     791     787     669    4436    4419    4438
CTRIA6      1512       1     791     790     789    4440    4428    4437
CTRIA6      1513       1     792     790     791    4441    4440    4442
CTRIA6      1514       1     764     792     763    4443    4444    4445
CTRIA6      1515       1     764     790     792    4430    4441    4443
CTRIA6      1516       1     668     792     791    4446    4442    4439
CTRIA6      1517       1     667     792     668    4447    4446    4067
CTRIA6      1518       1     763     667     666    4448    4071    4449
CTRIA6      1519       1     763     792     667    4444    4447    4448
CTRIA6      1520       1     793     652     653    4450    4451    4452
CTRIA6      1521       1     651     804     658    4453    4454    4113
CTRIA6      1522       1     804     652     793    4455    4450    4456
CTRIA6      1523       1     804     651     652    4453    4457    4455
CTRIA6      1524       1     795     805     794    4458    4459    4460
CTRIA6      1525       1     795     803     805    4461    4462    4458
CTRIA6      1526       1     659     803     660    4463    4464    4122
CTRIA6      1527       1     659     805     803    4465    4462    4463
CTRIA6      1528       1     794     804     793    4466    4456    4467
CTRIA6      1529       1     794     805     804    4459    4468    4466
CTRIA6      1530       1     658     805     659    4469    4465    4115
CTRIA6      1531       1     658     804     805    4454    4468    4469
CTRIA6      1532       1     660     806     661    4470    4471    4014
CTRIA6      1533       1     660     803     806    4464    4472    4470
CTRIA6      1534       1     796     803     795    4473    4461    4474
CTRIA6      1535       1     796     806     803    4475    4472    4473
CTRIA6      1536       1     661     807     662    4476    4477    4008
CTRIA6      1537       1     661     806     807    4471    4478    4476
CTRIA6      1538       1     797     806     796    4479    4475    4480
CTRIA6      1539       1     797     807     806    4481    4478    4479
CTRIA6      1540       1     662     808     663    4482    4483    4004
CTRIA6      1541       1     662     807     808    4477    4484    4482
CTRIA6      1542       1     798     807     797    4485    4481    4486
CTRIA6      1543       1     798     808     807    4487    4484    4485
CTRIA6      1544       1     663     809     664    4488    4489    4025
CTRIA6      1545       1     663     808     809    4483    4490    4488
CTRIA6      1546       1     799     808     798    4491    4487    4492
CTRIA6      1547       1     799     809     808    4493    4490    4491
CTRIA6      1548       1     664     810     665    4494    4495    4038
CTRIA6      1549       1     664     809     810    4489    4496    4494
CTRIA6      1550       1     800     809     799    4497    4493    4498
CTRIA6      1551       1     800     810     809    4499    4496    4497
CTRIA6      1552       1     666     811     763    4500    4501    4449
CTRIA6      1553       1     811     665     810    4502    4495    4503
CTRIA6      1554       1     811     666     665    4500    4034    4502
CTRIA6      1555       1     763     802     764    4504    4505    4445
CTRIA6      1556       1     810     801     811    4506    4507    4503
CTRIA6      1557       1     810     800     801    4499    4508    4506
CTRIA6      1558       1     811     802     763    4509    4504    4501
CTRIA6      1559       1     811     801     802    4507    4510    4509
CTRIA6      1560       1     268     657     269    4511    4512    3836
CTRIA6      1561       1     817     268     267    4513    3180    4514
CTRIA6      1562       1     657     817     656    4515    4516    4517
CTRIA6      1563       1     657     268     817    4511    4513    4515
CTRIA6      1564       1     656     816     655    4518    4519    4520
CTRIA6      1565       1     656     817     816    4516    4521    4518
CTRIA6      1566       1     815     267     266    4522    3182    4523
CTRIA6      1567       1     817     815     816    4524    4525    4521
CTRIA6      1568       1     817     267     815    4514    4522    4524
CTRIA6      1569       1     812     266     265    4526    3175    4527
CTRIA6      1570       1     812     815     266    4528    4523    4526
CTRIA6      1571       1     812     813     815    4529    4530    4528
CTRIA6      1572       1     655     814     654    4531    4532    4533
CTRIA6      1573       1     655     816     814    4519    4534    4531
CTRIA6      1574       1     813     816     815    4535    4525    4530
CTRIA6      1575       1     813     814     816    4536    4534    4535
CTRIA6      1576       1     255     821     820    4537    4538    4539
CTRIA6      1577       1     255     254     821    3170    4540    4537
CTRIA6      1578       1     767     254     253    4541    3166    4387
CTRIA6      1579       1     767     821     254    4542    4540    4541
CTRIA6      1580       1     764     822     765    4543    4544    4431
CTRIA6      1581       1     764     802     822    4505    4545    4543
CTRIA6      1582       1     818     802     801    4546    4510    4547
CTRIA6      1583       1     818     822     802    4548    4545    4546
CTRIA6      1584       1     820     823     819    4549    4550    4551
CTRIA6      1585       1     820     821     823    4538    4552    4549
CTRIA6      1586       1     766     821     767    4553    4542    4397
CTRIA6      1587       1     766     823     821    4554    4552    4553
CTRIA6      1588       1     819     822     818    4555    4548    4556
CTRIA6      1589       1     819     823     822    4550    4557    4555
CTRIA6      1590       1     765     823     766    4558    4554    4406
CTRIA6      1591       1     765     822     823    4544    4557    4558
CTRIA6      1592       1     256     820     826    4559    4560    4561
CTRIA6      1593       1     256     255     820    3168    4539    4559
CTRIA6      1594       1     826     819     825    4562    4563    4564
CTRIA6      1595       1     826     820     819    4560    4551    4562
CTRIA6      1596       1     801     824     818    4565    4566    4547
CTRIA6      1597       1     801     800     824    4508    4567    4565
CTRIA6      1598       1     818     825     819    4568    4563    4556
CTRIA6      1599       1     818     824     825    4566    4569    4568
CTRIA6      1600       1     257     826     829    4570    4571    4572
CTRIA6      1601       1     257     256     826    3085    4561    4570
CTRIA6      1602       1     829     825     828    4573    4574    4575
CTRIA6      1603       1     829     826     825    4571    4564    4573
CTRIA6      1604       1     800     827     824    4576    4577    4567
CTRIA6      1605       1     800     799     827    4498    4578    4576
CTRIA6      1606       1     824     828     825    4579    4574    4569
CTRIA6      1607       1     824     827     828    4577    4580    4579
CTRIA6      1608       1     830     799     798    4581    4492    4582
CTRIA6      1609       1     829     258     257    4583    3203    4572
CTRIA6      1610       1     830     827     799    4584    4578    4581
CTRIA6      1611       1     829     833     258    4585    4586    4583
CTRIA6      1612       1     831     827     830    4587    4584    4588
CTRIA6      1613       1     828     833     829    4589    4585    4575
CTRIA6      1614       1     828     832     833    4590    4591    4589
CTRIA6      1615       1     831     828     827    4592    4580    4587
CTRIA6      1616       1     831     832     828    4593    4590    4592
CTRIA6      1617       1     654     837     653    4594    4595    4596
CTRIA6      1618       1     654     814     837    4532    4597    4594
CTRIA6      1619       1     834     265     264    4598    3186    4599
CTRIA6      1620       1     814     836     837    4600    4601    4597
CTRIA6      1621       1     814     813     836    4536    4602    4600
CTRIA6      1622       1     834     812     265    4603    4527    4598
CTRIA6      1623       1     834     835     812    4604    4605    4603
CTRIA6      1624       1     813     835     836    4606    4607    4602
CTRIA6      1625       1     813     812     835    4529    4605    4606
CTRIA6      1626       1     259     833     841    4608    4609    4610
CTRIA6      1627       1     259     258     833    3215    4586    4608
CTRIA6      1628       1     841     832     840    4611    4612    4613
CTRIA6      1629       1     841     833     832    4609    4591    4611
CTRIA6      1630       1     840     831     839    4614    4615    4616
CTRIA6      1631       1     840     832     831    4612    4593    4614
CTRIA6      1632       1     798     838     830    4617    4618    4582
CTRIA6      1633       1     798     797     838    4486    4619    4617
CTRIA6      1634       1     830     839     831    4620    4615    4588
CTRIA6      1635       1     830     838     839    4618    4621    4620
CTRIA6      1636       1     260     841     845    4622    4623    4624
CTRIA6      1637       1     260     259     841    3234    4610    4622
CTRIA6      1638       1     845     840     844    4625    4626    4627
CTRIA6      1639       1     845     841     840    4623    4613    4625
CTRIA6      1640       1     844     839     843    4628    4629    4630
CTRIA6      1641       1     844     840     839    4626    4616    4628
CTRIA6      1642       1     797     842     838    4631    4632    4619
CTRIA6      1643       1     797     796     842    4480    4633    4631
CTRIA6      1644       1     838     843     839    4634    4629    4621
CTRIA6      1645       1     838     842     843    4632    4635    4634
CTRIA6      1646       1     264     848     834    4636    4637    4599
CTRIA6      1647       1     264     263     848    3192    4638    4636
CTRIA6      1648       1     847     263     262    4639    3209    4640
CTRIA6      1649       1     847     848     263    4641    4638    4639
CTRIA6      1650       1     845     261     260    4642    3240    4624
CTRIA6      1651       1     845     846     261    4643    4644    4642
CTRIA6      1652       1     262     846     847    4645    4646    4640
CTRIA6      1653       1     262     261     846    3224    4644    4645
CTRIA6      1654       1     834     849     835    4647    4648    4604
CTRIA6      1655       1     834     848     849    4637    4649    4647
CTRIA6      1656       1     835     850     836    4650    4651    4607
CTRIA6      1657       1     835     849     850    4648    4652    4650
CTRIA6      1658       1     793     837     851    4653    4654    4655
CTRIA6      1659       1     793     653     837    4452    4595    4653
CTRIA6      1660       1     851     836     850    4656    4651    4657
CTRIA6      1661       1     851     837     836    4654    4601    4656
CTRIA6      1662       1     844     846     845    4658    4643    4627
CTRIA6      1663       1     844     852     846    4659    4660    4658
CTRIA6      1664       1     848     853     849    4661    4662    4649
CTRIA6      1665       1     848     847     853    4641    4663    4661
CTRIA6      1666       1     852     847     846    4664    4646    4660
CTRIA6      1667       1     852     853     847    4665    4663    4664
CTRIA6      1668       1     849     854     850    4666    4667    4652
CTRIA6      1669       1     849     853     854    4662    4668    4666
CTRIA6      1670       1     794     851     855    4669    4670    4671
CTRIA6      1671       1     794     793     851    4467    4655    4669
CTRIA6      1672       1     855     850     854    4672    4667    4673
CTRIA6      1673       1     855     851     850    4670    4657    4672
CTRIA6      1674       1     796     856     842    4674    4675    4633
CTRIA6      1675       1     796     795     856    4474    4676    4674
CTRIA6      1676       1     855     795     794    4677    4460    4671
CTRIA6      1677       1     855     856     795    4678    4676    4677
CTRIA6      1678       1     852     843     857    4679    4680    4681
CTRIA6      1679       1     852     844     843    4659    4630    4679
CTRIA6      1680       1     857     842     856    4682    4675    4683
CTRIA6      1681       1     857     843     842    4680    4635    4682
CTRIA6      1682       1     853     857     854    4684    4685    4668
CTRIA6      1683       1     853     852     857    4665    4681    4684
CTRIA6      1684       1     854     856     855    4686    4678    4673
CTRIA6      1685       1     854     857     856    4685    4683    4686
CTRIA6      1686       1     269     879     270    4687    4688    3857
CTRIA6      1687       1     879     657     878    4689    4690    4691
CTRIA6      1688       1     879     269     657    4687    4512    4689
CTRIA6      1689       1     878     656     877    4692    4693    4694
CTRIA6      1690       1     878     657     656    4690    4517    4692
CTRIA6      1691       1     654     876     655    4695    4696    4533
CTRIA6      1692       1     654     875     876    4697    4698    4695
CTRIA6      1693       1     655     877     656    4699    4693    4520
CTRIA6      1694       1     655     876     877    4696    4700    4699
CTRIA6      1695       1     875     653     874    4701    4702    4703
CTRIA6      1696       1     875     654     653    4697    4596    4701
CTRIA6      1697       1     874     652     873    4704    4705    4706
CTRIA6      1698       1     874     653     652    4702    4451    4704
CTRIA6      1699       1     873     651     872    4707    4708    4709
CTRIA6      1700       1     873     652     651    4705    4457    4707
CTRIA6      1701       1     870     649     648    4710    4143    4711
CTRIA6      1702       1     872     650     871    4712    4713    4714
CTRIA6      1703       1     872     651     650    4708    4112    4712
CTRIA6      1704       1     871     649     870    4715    4710    4716
CTRIA6      1705       1     871     650     649    4713    4137    4715
CTRIA6      1706       1     648     869     870    4717    4718    4711
CTRIA6      1707       1     646     868     647    4719    4720    4155
CTRIA6      1708       1     646     867     868    4721    4722    4719
CTRIA6      1709       1     647     869     648    4723    4717    4141
CTRIA6      1710       1     647     868     869    4720    4724    4723
CTRIA6      1711       1     645     867     646    4725    4721    4150
CTRIA6      1712       1     645     866     867    4726    4727    4725
CTRIA6      1713       1     643     865     644    4728    4729    4182
CTRIA6      1714       1     643     864     865    4730    4731    4728
CTRIA6      1715       1     644     866     645    4732    4726    4176
CTRIA6      1716       1     644     865     866    4729    4733    4732
CTRIA6      1717       1     864     642     863    4734    4735    4736
CTRIA6      1718       1     864     643     642    4730    4192    4734
CTRIA6      1719       1     862     641     640    4737    4162    4738
CTRIA6      1720       1     641     863     642    4739    4735    4187
CTRIA6      1721       1     641     862     863    4737    4740    4739
CTRIA6      1722       1     640     861     862    4741    4742    4738
CTRIA6      1723       1     861     639     860    4743    4744    4745
CTRIA6      1724       1     861     640     639    4741    4254    4743
CTRIA6      1725       1     638     860     639    4746    4744    4257
CTRIA6      1726       1     638     859     860    4747    4748    4746
CTRIA6      1727       1    9045     858     637    4749    4750    4267
CTRIA6      1728       1    9045    9044     858    9097    4751    4749
CTRIA6      1729       1     637     859     638    4752    4747    4270
CTRIA6      1730       1     637     858     859    4750    4753    4752
CTRIA6      1731       1     270     902     271    4754    4755    3859
CTRIA6      1732       1     878     901     879    4756    4757    4691
CTRIA6      1733       1     878     900     901    4758    4759    4756
CTRIA6      1734       1     879     902     270    4760    4754    4688
CTRIA6      1735       1     879     901     902    4757    4761    4760
CTRIA6      1736       1     900     877     899    4762    4763    4764
CTRIA6      1737       1     900     878     877    4758    4694    4762
CTRIA6      1738       1     875     898     876    4765    4766    4698
CTRIA6      1739       1     875     897     898    4767    4768    4765
CTRIA6      1740       1     876     899     877    4769    4763    4700
CTRIA6      1741       1     876     898     899    4766    4770    4769
CTRIA6      1742       1     871     894     872    4771    4772    4714
CTRIA6      1743       1     871     893     894    4773    4774    4771
CTRIA6      1744       1     869     892     870    4775    4776    4718
CTRIA6      1745       1     869     891     892    4777    4778    4775
CTRIA6      1746       1     870     893     871    4779    4773    4716
CTRIA6      1747       1     870     892     893    4776    4780    4779
CTRIA6      1748       1     874     897     875    4781    4767    4703
CTRIA6      1749       1     874     896     897    4782    4783    4781
CTRIA6      1750       1     872     895     873    4784    4785    4709
CTRIA6      1751       1     872     894     895    4772    4786    4784
CTRIA6      1752       1     873     896     874    4787    4782    4706
CTRIA6      1753       1     873     895     896    4785    4788    4787
CTRIA6      1754       1     859     882     860    4789    4790    4748
CTRIA6      1755       1     859     881     882    4791    4792    4789
CTRIA6      1756       1    9044     880     858    4793    4794    4751
CTRIA6      1757       1    9044    9043     880    9098    4795    4793
CTRIA6      1758       1     858     881     859    4796    4791    4753
CTRIA6      1759       1     858     880     881    4794    4797    4796
CTRIA6      1760       1     862     885     863    4798    4799    4740
CTRIA6      1761       1     862     884     885    4800    4801    4798
CTRIA6      1762       1     860     883     861    4802    4803    4745
CTRIA6      1763       1     860     882     883    4790    4804    4802
CTRIA6      1764       1     861     884     862    4805    4800    4742
CTRIA6      1765       1     861     883     884    4803    4806    4805
CTRIA6      1766       1     868     891     869    4807    4777    4724
CTRIA6      1767       1     868     890     891    4808    4809    4807
CTRIA6      1768       1     866     889     867    4810    4811    4727
CTRIA6      1769       1     866     888     889    4812    4813    4810
CTRIA6      1770       1     867     890     868    4814    4808    4722
CTRIA6      1771       1     867     889     890    4811    4815    4814
CTRIA6      1772       1     865     888     866    4816    4812    4733
CTRIA6      1773       1     865     887     888    4817    4818    4816
CTRIA6      1774       1     863     886     864    4819    4820    4736
CTRIA6      1775       1     863     885     886    4799    4821    4819
CTRIA6      1776       1     864     887     865    4822    4817    4731
CTRIA6      1777       1     864     886     887    4820    4823    4822
CTRIA6      1778       1    9281     905    9280    4824    4825    9305
CTRIA6      1779       1     905     273     904    4826    4827    4828
CTRIA6      1780       1     905    9281     273    4824    3855    4826
CTRIA6      1781       1     903     271     902    4829    4755    4830
CTRIA6      1782       1     272     904     273    4831    4827    3851
CTRIA6      1783       1     903     272     271    4832    3874    4829
CTRIA6      1784       1     903     904     272    4833    4831    4832
CTRIA6      1785       1     902     929     903    4834    4835    4830
CTRIA6      1786       1     920     931     932    4836    4837    4838
CTRIA6      1787       1     920     921     931    4839    4840    4836
CTRIA6      1788       1     932     893     892    4841    4780    4842
CTRIA6      1789       1     932     931     893    4837    4843    4841
CTRIA6      1790       1     918     933     930    4844    4845    4846
CTRIA6      1791       1     918     919     933    4847    4848    4844
CTRIA6      1792       1     932     919     920    4849    4850    4838
CTRIA6      1793       1     932     933     919    4851    4848    4849
CTRIA6      1794       1     930     891     890    4852    4809    4853
CTRIA6      1795       1     930     933     891    4845    4854    4852
CTRIA6      1796       1     892     933     932    4855    4851    4842
CTRIA6      1797       1     892     891     933    4778    4854    4855
CTRIA6      1798       1     894     921     922    4856    4857    4858
CTRIA6      1799       1     931     894     893    4859    4774    4843
CTRIA6      1800       1     931     921     894    4840    4856    4859
CTRIA6      1801       1     922     895     894    4860    4786    4858
CTRIA6      1802       1     922     923     895    4861    4862    4860
CTRIA6      1803       1     923     896     895    4863    4788    4862
CTRIA6      1804       1     923     924     896    4864    4865    4863
CTRIA6      1805       1     924     897     896    4866    4783    4865
CTRIA6      1806       1     924     925     897    4867    4868    4866
CTRIA6      1807       1     925     898     897    4869    4768    4868
CTRIA6      1808       1     925     926     898    4870    4871    4869
CTRIA6      1809       1     929     901     928    4872    4873    4874
CTRIA6      1810       1     929     902     901    4834    4761    4872
CTRIA6      1811       1     926     899     898    4875    4770    4871
CTRIA6      1812       1     926     927     899    4876    4877    4875
CTRIA6      1813       1     900     928     901    4878    4873    4759
CTRIA6      1814       1     927     900     899    4879    4764    4877
CTRIA6      1815       1     927     928     900    4880    4878    4879
CTRIA6      1816       1     917     930     934    4881    4882    4883
CTRIA6      1817       1     917     918     930    4884    4846    4881
CTRIA6      1818       1     934     890     889    4885    4815    4886
CTRIA6      1819       1     934     930     890    4882    4853    4885
CTRIA6      1820       1     916     934     935    4887    4888    4889
CTRIA6      1821       1     916     917     934    4890    4883    4887
CTRIA6      1822       1     935     889     888    4891    4813    4892
CTRIA6      1823       1     935     934     889    4888    4886    4891
CTRIA6      1824       1     915     935     936    4893    4894    4895
CTRIA6      1825       1     915     916     935    4896    4889    4893
CTRIA6      1826       1     936     888     887    4897    4818    4898
CTRIA6      1827       1     936     935     888    4894    4892    4897
CTRIA6      1828       1     914     936     937    4899    4900    4901
CTRIA6      1829       1     914     915     936    4902    4895    4899
CTRIA6      1830       1     937     887     886    4903    4823    4904
CTRIA6      1831       1     937     936     887    4900    4898    4903
CTRIA6      1832       1     913     937     938    4905    4906    4907
CTRIA6      1833       1     913     914     937    4908    4901    4905
CTRIA6      1834       1     938     886     885    4909    4821    4910
CTRIA6      1835       1     938     937     886    4906    4904    4909
CTRIA6      1836       1     912     938     939    4911    4912    4913
CTRIA6      1837       1     912     913     938    4914    4907    4911
CTRIA6      1838       1     939     885     884    4915    4801    4916
CTRIA6      1839       1     939     938     885    4912    4910    4915
CTRIA6      1840       1     911     939     940    4917    4918    4919
CTRIA6      1841       1     911     912     939    4920    4913    4917
CTRIA6      1842       1     940     884     883    4921    4806    4922
CTRIA6      1843       1     940     939     884    4918    4916    4921
CTRIA6      1844       1     910     940     941    4923    4924    4925
CTRIA6      1845       1     910     911     940    4926    4919    4923
CTRIA6      1846       1     941     883     882    4927    4804    4928
CTRIA6      1847       1     941     940     883    4924    4922    4927
CTRIA6      1848       1     909     941     942    4929    4930    4931
CTRIA6      1849       1     909     910     941    4932    4925    4929
CTRIA6      1850       1     942     882     881    4933    4792    4934
CTRIA6      1851       1     942     941     882    4930    4928    4933
CTRIA6      1852       1     908     942     943    4935    4936    4937
CTRIA6      1853       1     908     909     942    4938    4931    4935
CTRIA6      1854       1     943     881     880    4939    4797    4940
CTRIA6      1855       1     943     942     881    4936    4934    4939
CTRIA6      1856       1     906    9042    9041    4941    9099    4942
CTRIA6      1857       1    9042     944    9043    4943    4944    9100
CTRIA6      1858       1     944     906     907    4945    4946    4947
CTRIA6      1859       1     944    9042     906    4943    4941    4945
CTRIA6      1860       1     880     944     943    4948    4949    4940
CTRIA6      1861       1     880    9043     944    4795    4944    4948
CTRIA6      1862       1     943     907     908    4950    4951    4937
CTRIA6      1863       1     943     944     907    4949    4947    4950
CTRIA6      1864       1     949     961     948    4952    4953    4954
CTRIA6      1865       1     961     962     960    4955    4956    4957
CTRIA6      1866       1     962     949     950    4958    4959    4960
CTRIA6      1867       1     962     961     949    4955    4952    4958
CTRIA6      1868       1     632     965     963    4961    4962    4963
CTRIA6      1869       1     965     633     964    4964    4965    4966
CTRIA6      1870       1     965     632     633    4961    4967    4964
CTRIA6      1871       1     963     954     955    4968    4969    4970
CTRIA6      1872       1     963     965     954    4962    4971    4968
CTRIA6      1873       1     954     964     953    4972    4973    4974
CTRIA6      1874       1     954     965     964    4971    4966    4972
CTRIA6      1875       1     951    9279    9280    4975    9306    4976
CTRIA6      1876       1     634     964     633    4977    4965    4978
CTRIA6      1877       1     951     636    9279    4979    4980    4975
CTRIA6      1878       1     952     636     951    4981    4979    4982
CTRIA6      1879       1     964     966     953    4983    4984    4973
CTRIA6      1880       1     966     634     635    4985    4986    4987
CTRIA6      1881       1     966     964     634    4983    4977    4985
CTRIA6      1882       1     953     966     952    4984    4988    4989
CTRIA6      1883       1     952     635     636    4990    4991    4981
CTRIA6      1884       1     952     966     635    4988    4987    4990
CTRIA6      1885       1     968     956     967    4992    4993    4994
CTRIA6      1886       1     955     968     963    4995    4996    4970
CTRIA6      1887       1     955     956     968    4997    4992    4995
CTRIA6      1888       1     963     631     632    4998    4999    4963
CTRIA6      1889       1     963     968     631    4996    5000    4998
CTRIA6      1890       1     630     967     629    5001    5002    5003
CTRIA6      1891       1     968     630     631    5004    5005    5000
CTRIA6      1892       1     968     967     630    4994    5001    5004
CTRIA6      1893       1     969     957     958    5006    5007    5008
CTRIA6      1894       1     957     967     956    5009    4993    5010
CTRIA6      1895       1     967     969     629    5011    5012    5002
CTRIA6      1896       1     967     957     969    5009    5006    5011
CTRIA6      1897       1     969     628     629    5013    5014    5012
CTRIA6      1898       1     970     969     958    5015    5008    5016
CTRIA6      1899       1     628     970     627    5017    5018    5019
CTRIA6      1900       1     628     969     970    5013    5015    5017
CTRIA6      1901       1     950     971     962    5020    5021    4960
CTRIA6      1902       1     971     625     626    5022    5023    5024
CTRIA6      1903       1     971     950     625    5020    5025    5022
CTRIA6      1904       1     960     972     959    5026    5027    5028
CTRIA6      1905       1     972     962     971    5029    5021    5030
CTRIA6      1906       1     972     960     962    5026    4956    5029
CTRIA6      1907       1     959     970     958    5031    5016    5032
CTRIA6      1908       1     971     973     972    5033    5034    5030
CTRIA6      1909       1     973     626     627    5035    5036    5037
CTRIA6      1910       1     973     971     626    5033    5024    5035
CTRIA6      1911       1     970     973     627    5038    5037    5018
CTRIA6      1912       1     972     970     959    5039    5031    5027
CTRIA6      1913       1     972     973     970    5034    5038    5039
CTRIA6      1914       1     945     919     918    5040    4847    5041
CTRIA6      1915       1     919     976     920    5042    5043    4850
CTRIA6      1916       1     976     945     946    5044    5045    5046
CTRIA6      1917       1     976     919     945    5042    5040    5044
CTRIA6      1918       1     946     974     976    5047    5048    5046
CTRIA6      1919       1     946     947     974    5049    5050    5047
CTRIA6      1920       1     920     975     921    5051    5052    4839
CTRIA6      1921       1     975     976     974    5053    5048    5054
CTRIA6      1922       1     975     920     976    5051    5043    5053
CTRIA6      1923       1     905     951    9280    5055    4976    4825
CTRIA6      1924       1     953     979     978    5056    5057    5058
CTRIA6      1925       1     953     952     979    4989    5059    5056
CTRIA6      1926       1     979     951     905    5060    5055    5061
CTRIA6      1927       1     979     952     951    5059    4982    5060
CTRIA6      1928       1     977     929     928    5062    4874    5063
CTRIA6      1929       1     904     979     905    5064    5061    4828
CTRIA6      1930       1     903     980     904    5065    5066    4833
CTRIA6      1931       1     980     929     977    5067    5062    5068
CTRIA6      1932       1     980     903     929    5065    4835    5067
CTRIA6      1933       1     980     979     904    5069    5064    5066
CTRIA6      1934       1     978     980     977    5070    5068    5071
CTRIA6      1935       1     978     979     980    5057    5069    5070
CTRIA6      1936       1     954     978     982    5072    5073    5074
CTRIA6      1937       1     954     953     978    4974    5058    5072
CTRIA6      1938       1     977     982     978    5075    5073    5071
CTRIA6      1939       1     981     928     927    5076    4880    5077
CTRIA6      1940       1     977     981     982    5078    5079    5075
CTRIA6      1941       1     977     928     981    5063    5076    5078
CTRIA6      1942       1     984     982     981    5080    5079    5081
CTRIA6      1943       1     982     955     954    5082    4969    5074
CTRIA6      1944       1     982     984     955    5080    5083    5082
CTRIA6      1945       1     983     927     926    5084    4876    5085
CTRIA6      1946       1     981     983     984    5086    5087    5081
CTRIA6      1947       1     981     927     983    5077    5084    5086
CTRIA6      1948       1     957     986     958    5088    5089    5007
CTRIA6      1949       1     987     957     956    5090    5010    5091
CTRIA6      1950       1     986     987     985    5092    5093    5094
CTRIA6      1951       1     986     957     987    5088    5090    5092
CTRIA6      1952       1     985     983     926    5095    5085    5096
CTRIA6      1953       1     985     987     983    5093    5097    5095
CTRIA6      1954       1     984     956     955    5098    4997    5083
CTRIA6      1955       1     987     984     983    5099    5087    5097
CTRIA6      1956       1     987     956     984    5091    5098    5099
CTRIA6      1957       1     925     985     926    5100    5096    4870
CTRIA6      1958       1     925     988     985    5101    5102    5100
CTRIA6      1959       1     958     989     959    5103    5104    5032
CTRIA6      1960       1     958     986     989    5089    5105    5103
CTRIA6      1961       1     988     986     985    5106    5094    5102
CTRIA6      1962       1     988     989     986    5107    5105    5106
CTRIA6      1963       1     924     988     925    5108    5101    4867
CTRIA6      1964       1     959     992     960    5109    5110    5028
CTRIA6      1965       1     989     992     959    5111    5109    5104
CTRIA6      1966       1     990     988     924    5112    5108    5113
CTRIA6      1967       1     989     991     992    5114    5115    5111
CTRIA6      1968       1     990     989     988    5116    5107    5112
CTRIA6      1969       1     990     991     989    5117    5114    5116
CTRIA6      1970       1     960     995     961    5118    5119    4957
CTRIA6      1971       1     960     992     995    5110    5120    5118
CTRIA6      1972       1     948     996     947    5121    5122    5123
CTRIA6      1973       1     996     961     995    5124    5119    5125
CTRIA6      1974       1     996     948     961    5121    4953    5124
CTRIA6      1975       1     992     993     995    5126    5127    5120
CTRIA6      1976       1     992     991     993    5115    5128    5126
CTRIA6      1977       1     974     996     994    5129    5130    5131
CTRIA6      1978       1     974     947     996    5050    5122    5129
CTRIA6      1979       1     994     995     993    5132    5127    5133
CTRIA6      1980       1     994     996     995    5130    5125    5132
CTRIA6      1981       1     991     997     993    5134    5135    5128
CTRIA6      1982       1     991     990     997    5117    5136    5134
CTRIA6      1983       1     923     990     924    5137    5113    4864
CTRIA6      1984       1     923     997     990    5138    5136    5137
CTRIA6      1985       1     921     998     922    5139    5140    4857
CTRIA6      1986       1     921     975     998    5052    5141    5139
CTRIA6      1987       1     994     975     974    5142    5054    5131
CTRIA6      1988       1     994     998     975    5143    5141    5142
CTRIA6      1989       1     922     997     923    5144    5138    4861
CTRIA6      1990       1     922     998     997    5140    5145    5144
CTRIA6      1991       1     993     998     994    5146    5143    5133
CTRIA6      1992       1     993     997     998    5135    5145    5146
CTRIA6      1993       1     912    1006     913    5147    5148    4914
CTRIA6      1994       1     912    1005    1006    5149    5150    5147
CTRIA6      1995       1     913    1007     914    5151    5152    4908
CTRIA6      1996       1     913    1006    1007    5148    5153    5151
CTRIA6      1997       1     914    1008     915    5154    5155    4902
CTRIA6      1998       1     914    1007    1008    5152    5156    5154
CTRIA6      1999       1     915    1009     916    5157    5158    4896
CTRIA6      2000       1     915    1008    1009    5155    5159    5157
CTRIA6      2001       1     916    1010     917    5160    5161    4890
CTRIA6      2002       1     916    1009    1010    5158    5162    5160
CTRIA6      2003       1     918    1011     945    5163    5164    5041
CTRIA6      2004       1    1011     917    1010    5165    5161    5166
CTRIA6      2005       1    1011     918     917    5163    4884    5165
CTRIA6      2006       1     999    9041    9040    5167    9101    5168
CTRIA6      2007       1     906     999    1000    5169    5170    5171
CTRIA6      2008       1     906    9041     999    4942    5167    5169
CTRIA6      2009       1     908    1001    1002    5172    5173    5174
CTRIA6      2010       1     908     907    1001    4951    5175    5172
CTRIA6      2011       1    1000     907     906    5176    4946    5171
CTRIA6      2012       1    1000    1001     907    5177    5175    5176
CTRIA6      2013       1    1002     909     908    5178    4938    5174
CTRIA6      2014       1    1003     909    1002    5179    5178    5180
CTRIA6      2015       1    1005     911    1004    5181    5182    5183
CTRIA6      2016       1    1005     912     911    5149    4920    5181
CTRIA6      2017       1    1003     910     909    5184    4932    5179
CTRIA6      2018       1     910    1004     911    5185    5182    4926
CTRIA6      2019       1     910    1003    1004    5184    5186    5185
CTRIA6      2020       1     621    1016     620    5187    5188    5189
CTRIA6      2021       1    1022     621     622    5190    5191    5192
CTRIA6      2022       1    1016    1022    1015    5193    5194    5195
CTRIA6      2023       1    1016     621    1022    5187    5190    5193
CTRIA6      2024       1    1015    1021    1014    5196    5197    5198
CTRIA6      2025       1    1015    1022    1021    5194    5199    5196
CTRIA6      2026       1    1020     622     623    5200    5201    5202
CTRIA6      2027       1    1022    1020    1021    5203    5204    5199
CTRIA6      2028       1    1022     622    1020    5192    5200    5203
CTRIA6      2029       1    1014    1019    1013    5205    5206    5207
CTRIA6      2030       1    1014    1021    1019    5197    5208    5205
CTRIA6      2031       1    1021    1018    1019    5209    5210    5208
CTRIA6      2032       1    1021    1020    1018    5204    5211    5209
CTRIA6      2033       1    1017     623     624    5212    5213    5214
CTRIA6      2034       1    1020    1017    1018    5215    5216    5211
CTRIA6      2035       1    1020     623    1017    5202    5212    5215
CTRIA6      2036       1    1012     947     946    5217    5049    5218
CTRIA6      2037       1     950     624     625    5219    5220    5025
CTRIA6      2038       1    1023     950     949    5221    4959    5222
CTRIA6      2039       1     950    1017     624    5223    5214    5219
CTRIA6      2040       1     950    1023    1017    5221    5224    5223
CTRIA6      2041       1     947    1024     948    5225    5226    5123
CTRIA6      2042       1    1024    1012    1013    5227    5228    5229
CTRIA6      2043       1    1024     947    1012    5225    5217    5227
CTRIA6      2044       1    1019    1024    1013    5230    5229    5206
CTRIA6      2045       1    1025     948    1024    5231    5226    5232
CTRIA6      2046       1     949    1025    1023    5233    5234    5222
CTRIA6      2047       1     949     948    1025    4954    5231    5233
CTRIA6      2048       1    1023    1018    1017    5235    5216    5224
CTRIA6      2049       1    1023    1025    1018    5234    5236    5235
CTRIA6      2050       1    1019    1025    1024    5237    5232    5230
CTRIA6      2051       1    1019    1018    1025    5210    5236    5237
CTRIA6      2052       1    1026    1009    1008    5238    5159    5239
CTRIA6      2053       1    1033    1026    1027    5240    5241    5242
CTRIA6      2054       1    1009    1033    1010    5243    5244    5162
CTRIA6      2055       1    1009    1026    1033    5238    5240    5243
CTRIA6      2056       1    1010    1032    1011    5245    5246    5166
CTRIA6      2057       1    1010    1033    1032    5244    5247    5245
CTRIA6      2058       1    1031    1027    1028    5248    5249    5250
CTRIA6      2059       1    1033    1031    1032    5251    5252    5247
CTRIA6      2060       1    1033    1027    1031    5242    5248    5251
CTRIA6      2061       1    1014    1030    1015    5253    5254    5198
CTRIA6      2062       1    1030    1034    1029    5255    5256    5257
CTRIA6      2063       1    1034    1014    1013    5258    5207    5259
CTRIA6      2064       1    1034    1030    1014    5255    5253    5258
CTRIA6      2065       1    1028    1035    1031    5260    5261    5250
CTRIA6      2066       1    1035    1029    1034    5262    5256    5263
CTRIA6      2067       1    1035    1028    1029    5260    5264    5262
CTRIA6      2068       1    1034    1036    1035    5265    5266    5263
CTRIA6      2069       1    1036    1013    1012    5267    5228    5268
CTRIA6      2070       1    1036    1034    1013    5265    5259    5267
CTRIA6      2071       1    1037    1035    1036    5269    5266    5270
CTRIA6      2072       1    1031    1037    1032    5271    5272    5252
CTRIA6      2073       1    1031    1035    1037    5261    5269    5271
CTRIA6      2074       1    1011    1038     945    5273    5274    5164
CTRIA6      2075       1    1038    1032    1037    5275    5272    5276
CTRIA6      2076       1    1038    1011    1032    5273    5246    5275
CTRIA6      2077       1    1038     946     945    5277    5045    5274
CTRIA6      2078       1     946    1039    1012    5278    5279    5218
CTRIA6      2079       1     946    1038    1039    5277    5280    5278
CTRIA6      2080       1    1037    1039    1038    5281    5280    5276
CTRIA6      2081       1    1039    1036    1012    5282    5268    5279
CTRIA6      2082       1    1039    1037    1036    5281    5270    5282
CTRIA6      2083       1    1008    1049    1026    5283    5284    5239
CTRIA6      2084       1    1049    1007    1048    5285    5286    5287
CTRIA6      2085       1    1049    1008    1007    5283    5156    5285
CTRIA6      2086       1    1048    1006    1047    5288    5289    5290
CTRIA6      2087       1    1048    1007    1006    5286    5153    5288
CTRIA6      2088       1    1004    1046    1005    5291    5292    5183
CTRIA6      2089       1    1004    1045    1046    5293    5294    5291
CTRIA6      2090       1    1005    1047    1006    5295    5289    5150
CTRIA6      2091       1    1005    1046    1047    5292    5296    5295
CTRIA6      2092       1    1045    1003    1044    5297    5298    5299
CTRIA6      2093       1    1045    1004    1003    5293    5186    5297
CTRIA6      2094       1    1044    1002    1043    5300    5301    5302
CTRIA6      2095       1    1044    1003    1002    5298    5180    5300
CTRIA6      2096       1    1001    1043    1002    5303    5301    5173
CTRIA6      2097       1    1042    1001    1000    5304    5177    5305
CTRIA6      2098       1    1042    1043    1001    5306    5303    5304
CTRIA6      2099       1    1000    1041    1042    5307    5308    5305
CTRIA6      2100       1    1000     999    1041    5170    5309    5307
CTRIA6      2101       1    1040    9040    9039    5310    9102    5311
CTRIA6      2102       1     999    1040    1041    5312    5313    5309
CTRIA6      2103       1     999    9040    1040    5168    5310    5312
CTRIA6      2104       1    1029    1053    1030    5314    5315    5257
CTRIA6      2105       1    1029    1052    1053    5316    5317    5314
CTRIA6      2106       1    1015    1054    1016    5318    5319    5195
CTRIA6      2107       1    1054    1030    1053    5320    5315    5321
CTRIA6      2108       1    1054    1015    1030    5318    5254    5320
CTRIA6      2109       1    1050    1026    1049    5322    5284    5323
CTRIA6      2110       1    1027    1050    1051    5324    5325    5326
CTRIA6      2111       1    1027    1026    1050    5241    5322    5324
CTRIA6      2112       1    1028    1052    1029    5327    5316    5264
CTRIA6      2113       1    1051    1028    1027    5328    5249    5326
CTRIA6      2114       1    1051    1052    1028    5329    5327    5328
CTRIA6      2115       1     618    1058     617    5330    5331    5332
CTRIA6      2116       1    1058    1059    1057    5333    5334    5335
CTRIA6      2117       1    1059     618     619    5336    5337    5338
CTRIA6      2118       1    1059    1058     618    5333    5330    5336
CTRIA6      2119       1    1055    1053    1052    5339    5317    5340
CTRIA6      2120       1    1060    1055    1056    5341    5342    5343
CTRIA6      2121       1    1053    1060    1054    5344    5345    5321
CTRIA6      2122       1    1053    1055    1060    5339    5341    5344
CTRIA6      2123       1    1056    1061    1060    5346    5347    5343
CTRIA6      2124       1    1061    1057    1059    5348    5334    5349
CTRIA6      2125       1    1061    1056    1057    5346    5350    5348
CTRIA6      2126       1    1062    1016    1054    5351    5319    5352
CTRIA6      2127       1     620    1062     619    5353    5354    5355
CTRIA6      2128       1     620    1016    1062    5188    5351    5353
CTRIA6      2129       1    1062    1059     619    5356    5338    5354
CTRIA6      2130       1    1060    1062    1054    5357    5352    5345
CTRIA6      2131       1    1062    1061    1059    5358    5349    5356
CTRIA6      2132       1    1062    1060    1061    5357    5347    5358
CTRIA6      2133       1    1068    1052    1051    5359    5329    5360
CTRIA6      2134       1    1068    1055    1052    5361    5340    5359
CTRIA6      2135       1    1055    1066    1056    5362    5363    5342
CTRIA6      2136       1    1055    1068    1066    5361    5364    5362
CTRIA6      2137       1    1065    1068    1067    5365    5366    5367
CTRIA6      2138       1    1065    1066    1068    5368    5364    5365
CTRIA6      2139       1    1067    1051    1050    5369    5325    5370
CTRIA6      2140       1    1067    1068    1051    5366    5360    5369
CTRIA6      2141       1    1063    1048    1047    5371    5290    5372
CTRIA6      2142       1    1048    1069    1049    5373    5374    5287
CTRIA6      2143       1    1069    1063    1064    5375    5376    5377
CTRIA6      2144       1    1069    1048    1063    5373    5371    5375
CTRIA6      2145       1    1050    1069    1067    5378    5379    5370
CTRIA6      2146       1    1050    1049    1069    5323    5374    5378
CTRIA6      2147       1    1067    1064    1065    5380    5381    5367
CTRIA6      2148       1    1067    1069    1064    5379    5377    5380
CTRIA6      2149       1    1056    1075    1057    5382    5383    5350
CTRIA6      2150       1    1070    1047    1046    5384    5296    5385
CTRIA6      2151       1    1075    1066    1074    5386    5387    5388
CTRIA6      2152       1    1075    1056    1066    5382    5363    5386
CTRIA6      2153       1    1070    1063    1047    5389    5372    5384
CTRIA6      2154       1    1070    1071    1063    5390    5391    5389
CTRIA6      2155       1    1074    1065    1073    5392    5393    5394
CTRIA6      2156       1    1074    1066    1065    5387    5368    5392
CTRIA6      2157       1    1071    1064    1063    5395    5376    5391
CTRIA6      2158       1    1071    1072    1064    5396    5397    5395
CTRIA6      2159       1    1064    1073    1065    5398    5393    5381
CTRIA6      2160       1    1064    1072    1073    5397    5399    5398
CTRIA6      2161       1    1072    1078    1079    5400    5401    5402
CTRIA6      2162       1    1072    1071    1078    5396    5403    5400
CTRIA6      2163       1    1071    1077    1078    5404    5405    5403
CTRIA6      2164       1    1071    1070    1077    5390    5406    5404
CTRIA6      2165       1    1076    1046    1045    5407    5294    5408
CTRIA6      2166       1    1070    1076    1077    5409    5410    5406
CTRIA6      2167       1    1070    1046    1076    5385    5407    5409
CTRIA6      2168       1    1079    1073    1072    5411    5399    5402
CTRIA6      2169       1    1079    1080    1073    5412    5413    5411
CTRIA6      2170       1    1057    1082    1058    5414    5415    5335
CTRIA6      2171       1    1082    1075    1081    5416    5417    5418
CTRIA6      2172       1    1082    1057    1075    5414    5383    5416
CTRIA6      2173       1    1074    1081    1075    5419    5417    5388
CTRIA6      2174       1    1080    1074    1073    5420    5394    5413
CTRIA6      2175       1    1080    1081    1074    5421    5419    5420
CTRIA6      2176       1    1083    1078    1077    5422    5405    5423
CTRIA6      2177       1    1088    1083    1084    5424    5425    5426
CTRIA6      2178       1    1078    1088    1079    5427    5428    5401
CTRIA6      2179       1    1078    1083    1088    5422    5424    5427
CTRIA6      2180       1    1079    1087    1080    5429    5430    5412
CTRIA6      2181       1    1079    1088    1087    5428    5431    5429
CTRIA6      2182       1    1086    1084    1085    5432    5433    5434
CTRIA6      2183       1    1088    1086    1087    5435    5436    5431
CTRIA6      2184       1    1088    1084    1086    5426    5432    5435
CTRIA6      2185       1    1080    1089    1081    5437    5438    5421
CTRIA6      2186       1    1080    1087    1089    5430    5439    5437
CTRIA6      2187       1    1081    1090    1082    5440    5441    5418
CTRIA6      2188       1    1081    1089    1090    5438    5442    5440
CTRIA6      2189       1    1058    1091     617    5443    5444    5331
CTRIA6      2190       1    1091    1082    1090    5445    5441    5446
CTRIA6      2191       1    1091    1058    1082    5443    5415    5445
CTRIA6      2192       1    1085    1092    1086    5447    5448    5434
CTRIA6      2193       1    1092    9145    9144    5449    9172    5450
CTRIA6      2194       1    1092    1085    9145    5447    5451    5449
CTRIA6      2195       1    1093    1086    1092    5452    5448    5453
CTRIA6      2196       1    1087    1093    1089    5454    5455    5439
CTRIA6      2197       1    1087    1086    1093    5436    5452    5454
CTRIA6      2198       1    1091    9141     617    5456    5457    5444
CTRIA6      2199       1    1092    1094    1093    5458    5459    5453
CTRIA6      2200       1    1094    9144    9143    5460    9173    5461
CTRIA6      2201       1    1094    1092    9144    5458    5450    5460
CTRIA6      2202       1    9142    1095    9143    5462    5463    9174
CTRIA6      2203       1    9141    1096    9142    5464    5465    9175
CTRIA6      2204       1    9141    1091    1096    5456    5466    5464
CTRIA6      2205       1    1096    1095    9142    5467    5462    5465
CTRIA6      2206       1    1090    1096    1091    5468    5466    5446
CTRIA6      2207       1    1090    1095    1096    5469    5467    5468
CTRIA6      2208       1    1095    1094    9143    5470    5461    5463
CTRIA6      2209       1    1089    1095    1090    5471    5469    5442
CTRIA6      2210       1    1094    1089    1093    5472    5455    5459
CTRIA6      2211       1    1094    1095    1089    5470    5471    5472
CTRIA6      2212       1    1077    1098    1083    5473    5474    5423
CTRIA6      2213       1    1077    1076    1098    5410    5475    5473
CTRIA6      2214       1    1097    1045    1044    5476    5299    5477
CTRIA6      2215       1    1076    1097    1098    5478    5479    5475
CTRIA6      2216       1    1076    1045    1097    5408    5476    5478
CTRIA6      2217       1    1099    1044    1043    5480    5302    5481
CTRIA6      2218       1    1097    1099    1100    5482    5483    5484
CTRIA6      2219       1    1097    1044    1099    5477    5480    5482
CTRIA6      2220       1    1083    1101    1084    5485    5486    5425
CTRIA6      2221       1    1083    1098    1101    5474    5487    5485
CTRIA6      2222       1    1100    1098    1097    5488    5479    5484
CTRIA6      2223       1    1100    1101    1098    5489    5487    5488
CTRIA6      2224       1    1103    1104    1102    5490    5491    5492
CTRIA6      2225       1    1104    9147    9146    5493    9176    5494
CTRIA6      2226       1    9147    1103    9148    5495    5496    9177
CTRIA6      2227       1    9147    1104    1103    5493    5490    5495
CTRIA6      2228       1    1085    9146    9145    5497    9178    5451
CTRIA6      2229       1    1105    1102    1104    5498    5491    5499
CTRIA6      2230       1    1101    1105    1084    5500    5501    5486
CTRIA6      2231       1    1101    1102    1105    5502    5498    5500
CTRIA6      2232       1    1105    1085    1084    5503    5433    5501
CTRIA6      2233       1    9146    1105    1104    5504    5499    5494
CTRIA6      2234       1    9146    1085    1105    5497    5503    5504
CTRIA6      2235       1    9148    1107    9149    5505    5506    9179
CTRIA6      2236       1    1107    1103    1106    5507    5508    5509
CTRIA6      2237       1    1107    9148    1103    5505    5496    5507
CTRIA6      2238       1    1102    1106    1103    5510    5508    5492
CTRIA6      2239       1    1100    1102    1101    5511    5502    5489
CTRIA6      2240       1    1100    1106    1102    5512    5510    5511
CTRIA6      2241       1    1099    1106    1100    5513    5512    5483
CTRIA6      2242       1    1106    1111    1107    5514    5515    5509
CTRIA6      2243       1    1108    1106    1099    5516    5513    5517
CTRIA6      2244       1    1108    1111    1106    5518    5514    5516
CTRIA6      2245       1    9150    1110    9151    5519    5520    9180
CTRIA6      2246       1    1110    1112    1109    5521    5522    5523
CTRIA6      2247       1    1112    9150    9149    5524    9181    5525
CTRIA6      2248       1    1112    1110    9150    5521    5519    5524
CTRIA6      2249       1    1109    1111    1108    5526    5518    5527
CTRIA6      2250       1    1109    1112    1111    5522    5528    5526
CTRIA6      2251       1    1107    1112    9149    5529    5525    5506
CTRIA6      2252       1    1107    1111    1112    5515    5528    5529
CTRIA6      2253       1    1043    1108    1099    5530    5517    5481
CTRIA6      2254       1    1114    1043    1042    5531    5306    5532
CTRIA6      2255       1    1114    1108    1043    5533    5530    5531
CTRIA6      2256       1    1109    1114    1113    5534    5535    5536
CTRIA6      2257       1    1109    1108    1114    5527    5533    5534
CTRIA6      2258       1    1113    1042    1041    5537    5308    5538
CTRIA6      2259       1    1113    1114    1042    5535    5532    5537
CTRIA6      2260       1    1115    1041    1040    5539    5313    5540
CTRIA6      2261       1    1115    1113    1041    5541    5538    5539
CTRIA6      2262       1    1113    1110    1109    5542    5523    5536
CTRIA6      2263       1    1113    1115    1110    5541    5543    5542
CTRIA6      2264       1    1115    9151    1110    5544    5520    5543
CTRIA6      2265       1    9039    1116    1040    5545    5546    5311
CTRIA6      2266       1    1116    9338    9152    5547    9182    5548
CTRIA6      2267       1    1116    9039    9338    5545    9103    5547
CTRIA6      2268       1    1116    1115    1040    5549    5540    5546
CTRIA6      2269       1    9151    1116    9152    5550    5548    9183
CTRIA6      2270       1    9151    1115    1116    5544    5549    5550
CTRIA6      2271       1     596     618     597    5551    5552    3996
CTRIA6      2272       1     596     619     618    5553    5337    5551
CTRIA6      2273       1    9140     617    9141    5554    5457    9184
CTRIA6      2274       1     617     597     618    5555    5552    5332
CTRIA6      2275       1     617    9140     597    5554    3993    5555
CTRIA6      2276       1     626     589     588    5556    3954    5557
CTRIA6      2277       1     626     625     589    5023    5558    5556
CTRIA6      2278       1     591     624     623    5559    5213    5560
CTRIA6      2279       1     591     590     624    3966    5561    5559
CTRIA6      2280       1     625     590     589    5562    3960    5558
CTRIA6      2281       1     625     624     590    5220    5561    5562
CTRIA6      2282       1     623     592     591    5563    3972    5560
CTRIA6      2283       1     623     622     592    5201    5564    5563
CTRIA6      2284       1     619     595     620    5565    5566    5355
CTRIA6      2285       1     619     596     595    5553    4000    5565
CTRIA6      2286       1     622     593     592    5567    3978    5564
CTRIA6      2287       1     622     621     593    5191    5568    5567
CTRIA6      2288       1     594     620     595    5569    5566    3990
CTRIA6      2289       1     621     594     593    5570    3984    5568
CTRIA6      2290       1     621     620     594    5189    5569    5570
CTRIA6      2291       1    9277    1117     578    5571    5572    3889
CTRIA6      2292       1     636    9278    9279    5573    9307    4980
CTRIA6      2293       1    9278    1117    9277    5574    5571    9308
CTRIA6      2294       1    9278     636    1117    5573    5575    5574
CTRIA6      2295       1     579     635     634    5576    4986    5577
CTRIA6      2296       1     635    1117     636    5578    5575    4991
CTRIA6      2297       1     578     635     579    5579    5576    3909
CTRIA6      2298       1     578    1117     635    5572    5578    5579
CTRIA6      2299       1     588     627     626    5580    5036    5557
CTRIA6      2300       1     588     587     627    3946    5581    5580
CTRIA6      2301       1     583     632     631    5582    4999    5583
CTRIA6      2302       1     632     582     633    5584    5585    4967
CTRIA6      2303       1     632     583     582    5582    3938    5584
CTRIA6      2304       1    1118     634     633    5586    4978    5587
CTRIA6      2305       1     634     580     579    5588    3907    5577
CTRIA6      2306       1     634    1118     580    5586    5589    5588
CTRIA6      2307       1    1118     598     580    3901    3905    5589
CTRIA6      2308       1     581     633     582    5590    5585    3933
CTRIA6      2309       1     581    1118     633    3902    5587    5590
CTRIA6      2310       1     631     584     583    5591    3927    5583
CTRIA6      2311       1     631     630     584    5005    5592    5591
CTRIA6      2312       1     587     628     627    5593    5019    5581
CTRIA6      2313       1     587     586     628    3944    5594    5593
CTRIA6      2314       1     630     585     584    5595    3922    5592
CTRIA6      2315       1     630     629     585    5003    5596    5595
CTRIA6      2316       1     586     629     628    5597    5014    5594
CTRIA6      2317       1     586     585     629    3941    5596    5597
CTRIA6      2318       1    1163    9119    9118    5598    9185    5599
CTRIA6      2319       1    1180    1185    1179    5600    5601    5602
CTRIA6      2320       1    1184    9339    9203    5603    9216    5604
CTRIA6      2321       1    1186    1185    1180    5605    5600    5606
CTRIA6      2322       1    1185    1186    1184    5605    5607    5608
CTRIA6      2323       1    1180    1182    1186    5609    5610    5606
CTRIA6      2324       1    9252    1186    1182    5611    5610    5612
CTRIA6      2325       1    1186    9339    1184    5613    5603    5607
CTRIA6      2326       1    1186    9252    9339    5611    9253    5613
CTRIA6      2327       1      15    1188      16    5614    5615    2248
CTRIA6      2328       1    1188    1189    1187    5616    5617    5618
CTRIA6      2329       1    1189     245      14    2829    2834    5619
CTRIA6      2330       1    1189    1188      15    5616    5614    2827
CTRIA6      2331       1    1187    1183    1177    5620    5621    5622
CTRIA6      2332       1    1183      14      13    5623    2820    5624
CTRIA6      2333       1    1189    1183    1187    5625    5620    5617
CTRIA6      2334       1    1189      14    1183    5619    5623    5625
CTRIA6      2335       1    1178    1187    1177    5626    5622    5627
CTRIA6      2336       1    1190    1179    1185    5628    5601    5629
CTRIA6      2337       1    1178    1191    1187    5630    5631    5626
CTRIA6      2338       1    1190    1178    1179    5632    5633    5628
CTRIA6      2339       1    1190    1191    1178    5634    5630    5632
CTRIA6      2340       1    1192    9204      18    5635    2244    5636
CTRIA6      2341       1    9203    1192    1184    5637    5638    5604
CTRIA6      2342       1    9203    9204    1192    9217    5635    5637
CTRIA6      2343       1    1193    1184    1192    5639    5638    5640
CTRIA6      2344       1    1185    1193    1190    5641    5642    5629
CTRIA6      2345       1    1185    1184    1193    5608    5639    5641
CTRIA6      2346       1    1194      18      17    5643    2247    5644
CTRIA6      2347       1    1192    1194    1193    5645    5646    5640
CTRIA6      2348       1    1192      18    1194    5636    5643    5645
CTRIA6      2349       1    1188    1195      16    5647    5648    5615
CTRIA6      2350       1    1191    1188    1187    5649    5618    5631
CTRIA6      2351       1    1195    1191    1190    5650    5634    5651
CTRIA6      2352       1    1195    1188    1191    5647    5649    5650
CTRIA6      2353       1    1193    1195    1190    5652    5651    5642
CTRIA6      2354       1    1195      17      16    5653    2260    5648
CTRIA6      2355       1    1194    1195    1193    5654    5652    5646
CTRIA6      2356       1    1194      17    1195    5644    5653    5654
CTRIA6      2357       1    9119    1196    9120    5655    5656    9186
CTRIA6      2358       1    1196    1163    1164    5657    5658    5659
CTRIA6      2359       1    1196    9119    1163    5655    5598    5657
CTRIA6      2360       1    1197    9120    1196    5660    5656    5661
CTRIA6      2361       1    9121    1197       1    5662    5663    2268
CTRIA6      2362       1    9121    9120    1197    9187    5660    5662
CTRIA6      2363       1    1196    1198    1197    5664    5665    5661
CTRIA6      2364       1    1198    1164    1165    5666    5667    5668
CTRIA6      2365       1    1198    1196    1164    5664    5659    5666
CTRIA6      2366       1    1199    1197    1198    5669    5665    5670
CTRIA6      2367       1       1    1199       2    5671    5672    2270
CTRIA6      2368       1       1    1197    1199    5663    5669    5671
CTRIA6      2369       1    1176    1183    1200    5673    5674    5675
CTRIA6      2370       1    1176    1177    1183    5676    5621    5673
CTRIA6      2371       1    1200      13      12    5677    2578    5678
CTRIA6      2372       1    1200    1183      13    5674    5624    5677
CTRIA6      2373       1    1175    1200    1201    5679    5680    5681
CTRIA6      2374       1    1175    1176    1200    5682    5675    5679
CTRIA6      2375       1    1201      12      11    5683    2530    5684
CTRIA6      2376       1    1201    1200      12    5680    5678    5683
CTRIA6      2377       1    1201    1174    1175    5685    5686    5681
CTRIA6      2378       1    1174      11      10    5687    2729    5688
CTRIA6      2379       1    1174    1201      11    5685    5684    5687
CTRIA6      2380       1    1198    1202    1199    5689    5690    5670
CTRIA6      2381       1    1202    1165    1166    5691    5692    5693
CTRIA6      2382       1    1202    1198    1165    5689    5668    5691
CTRIA6      2383       1    1203      10       9    5694    2709    5695
CTRIA6      2384       1      10    1173    1174    5696    5697    5688
CTRIA6      2385       1      10    1203    1173    5694    5698    5696
CTRIA6      2386       1    1204    1199    1202    5699    5690    5700
CTRIA6      2387       1       2    1204       3    5701    5702    2281
CTRIA6      2388       1       2    1199    1204    5672    5699    5701
CTRIA6      2389       1    1172    1203    1205    5703    5704    5705
CTRIA6      2390       1    1172    1173    1203    5706    5698    5703
CTRIA6      2391       1    1205       9       8    5707    2713    5708
CTRIA6      2392       1    1205    1203       9    5704    5695    5707
CTRIA6      2393       1    1202    1206    1204    5709    5710    5700
CTRIA6      2394       1    1206    1166    1167    5711    5712    5713
CTRIA6      2395       1    1206    1202    1166    5709    5693    5711
CTRIA6      2396       1    1207    1204    1206    5714    5710    5715
CTRIA6      2397       1       3    1207       4    5716    5717    2289
CTRIA6      2398       1       3    1204    1207    5702    5714    5716
CTRIA6      2399       1       8    1211    1205    5718    5719    5708
CTRIA6      2400       1       8       7    1211    2718    5720    5718
CTRIA6      2401       1    1210       7       6    5721    2715    5722
CTRIA6      2402       1    1210    1211       7    5723    5720    5721
CTRIA6      2403       1       6    1209    1210    5724    5725    5722
CTRIA6      2404       1       6       5    1209    2332    5726    5724
CTRIA6      2405       1       5    1208    1209    5727    5728    5726
CTRIA6      2406       1    1208       4    1207    5729    5717    5730
CTRIA6      2407       1    1208       5       4    5727    2327    5729
CTRIA6      2408       1    1213    1206    1167    5731    5713    5732
CTRIA6      2409       1    1207    1213    1208    5733    5734    5730
CTRIA6      2410       1    1207    1206    1213    5715    5731    5733
CTRIA6      2411       1    1208    1212    1209    5735    5736    5728
CTRIA6      2412       1    1208    1213    1212    5734    5737    5735
CTRIA6      2413       1    1168    1213    1167    5738    5732    5739
CTRIA6      2414       1    1168    1212    1213    5740    5737    5738
CTRIA6      2415       1    1169    1212    1168    5741    5740    5742
CTRIA6      2416       1    1209    1169    1210    5743    5744    5725
CTRIA6      2417       1    1209    1212    1169    5736    5741    5743
CTRIA6      2418       1    1205    1171    1172    5745    5746    5705
CTRIA6      2419       1    1205    1211    1171    5719    5747    5745
CTRIA6      2420       1    1211    1170    1171    5748    5749    5747
CTRIA6      2421       1    1170    1210    1169    5750    5744    5751
CTRIA6      2422       1    1170    1211    1210    5748    5723    5750
CTRIA6      2423       1    9251    1181    9250    5752    5753    9254
CTRIA6      2424       1    1181    1182    1180    5754    5609    5755
CTRIA6      2425       1    1182    9251    9252    5756    9255    5612
CTRIA6      2426       1    1182    1181    9251    5754    5752    5756
CTRIA6      2427       1    1138    8979    8978    5757    9006    5758
CTRIA6      2428       1    8979    1288    8980    5759    5760    9007
CTRIA6      2429       1    8979    1138    1288    5757    5761    5759
CTRIA6      2430       1    1287    8981    1289    5762    5763    5764
CTRIA6      2431       1    1287    8982    8981    5765    9008    5762
CTRIA6      2432       1    1289    8980    1288    5766    5760    5767
CTRIA6      2433       1    1289    8981    8980    5763    9009    5766
CTRIA6      2434       1    1285    1140    1141    5768    5769    5770
CTRIA6      2435       1    1140    1290    1139    5771    5772    5773
CTRIA6      2436       1    1290    1285    1286    5774    5775    5776
CTRIA6      2437       1    1290    1140    1285    5771    5768    5774
CTRIA6      2438       1    1286    1289    1290    5777    5778    5776
CTRIA6      2439       1    1286    1287    1289    5779    5764    5777
CTRIA6      2440       1    1139    1288    1138    5780    5761    5781
CTRIA6      2441       1    1288    1290    1289    5782    5778    5767
CTRIA6      2442       1    1288    1139    1290    5780    5772    5782
CTRIA6      2443       1    8982    1291    8983    5783    5784    9010
CTRIA6      2444       1    8982    1287    1291    5765    5785    5783
CTRIA6      2445       1    1284    8984    1292    5786    5787    5788
CTRIA6      2446       1    1284    8985    8984    5789    9011    5786
CTRIA6      2447       1    1292    8983    1291    5790    5784    5791
CTRIA6      2448       1    1292    8984    8983    5787    9012    5790
CTRIA6      2449       1    1141    1294    1285    5792    5793    5770
CTRIA6      2450       1    1279    1143    1144    5794    5795    5796
CTRIA6      2451       1    1293    1143    1279    5797    5794    5798
CTRIA6      2452       1    1293    1142    1143    5799    5800    5797
CTRIA6      2453       1    1142    1294    1141    5801    5792    5802
CTRIA6      2454       1    1142    1293    1294    5799    5803    5801
CTRIA6      2455       1    1296    1292    1291    5804    5791    5805
CTRIA6      2456       1    1292    1283    1284    5806    5807    5788
CTRIA6      2457       1    1292    1296    1283    5804    5808    5806
CTRIA6      2458       1    1291    1295    1296    5809    5810    5805
CTRIA6      2459       1    1295    1287    1286    5811    5779    5812
CTRIA6      2460       1    1295    1291    1287    5809    5785    5811
CTRIA6      2461       1    1297    1285    1294    5813    5793    5814
CTRIA6      2462       1    1286    1297    1295    5815    5816    5812
CTRIA6      2463       1    1286    1285    1297    5775    5813    5815
CTRIA6      2464       1    1296    1282    1283    5817    5818    5808
CTRIA6      2465       1    1280    1293    1279    5819    5798    5820
CTRIA6      2466       1    1298    1295    1297    5821    5816    5822
CTRIA6      2467       1    1296    1298    1282    5823    5824    5817
CTRIA6      2468       1    1296    1295    1298    5810    5821    5823
CTRIA6      2469       1    1298    1281    1282    5825    5826    5824
CTRIA6      2470       1    1293    1299    1294    5827    5828    5803
CTRIA6      2471       1    1299    1280    1281    5829    5830    5831
CTRIA6      2472       1    1299    1293    1280    5827    5819    5829
CTRIA6      2473       1    1299    1297    1294    5832    5814    5828
CTRIA6      2474       1    1298    1299    1281    5833    5831    5825
CTRIA6      2475       1    1298    1297    1299    5822    5832    5833
CTRIA6      2476       1    1278    8988    1302    5834    5835    5836
CTRIA6      2477       1    1278    8989    8988    5837    9013    5834
CTRIA6      2478       1    1300    8985    1284    5838    5789    5839
CTRIA6      2479       1    8986    1300    1301    5840    5841    5842
CTRIA6      2480       1    8986    8985    1300    9014    5838    5840
CTRIA6      2481       1    8987    1302    8988    5843    5835    9015
CTRIA6      2482       1    1301    8987    8986    5844    9016    5842
CTRIA6      2483       1    1301    1302    8987    5845    5843    5844
CTRIA6      2484       1    1303    1144    1145    5846    5847    5848
CTRIA6      2485       1    1279    1304    1280    5849    5850    5820
CTRIA6      2486       1    1303    1279    1144    5851    5796    5846
CTRIA6      2487       1    1303    1304    1279    5852    5849    5851
CTRIA6      2488       1    1280    1305    1281    5853    5854    5830
CTRIA6      2489       1    1280    1304    1305    5850    5855    5853
CTRIA6      2490       1    1284    1308    1300    5856    5857    5839
CTRIA6      2491       1    1308    1283    1307    5858    5859    5860
CTRIA6      2492       1    1308    1284    1283    5856    5807    5858
CTRIA6      2493       1    1281    1306    1282    5861    5862    5826
CTRIA6      2494       1    1281    1305    1306    5854    5863    5861
CTRIA6      2495       1    1282    1307    1283    5864    5859    5818
CTRIA6      2496       1    1282    1306    1307    5862    5865    5864
CTRIA6      2497       1    1309    1269    1270    5866    5867    5868
CTRIA6      2498       1    1311    1309    1310    5869    5870    5871
CTRIA6      2499       1    1269    1311    1268    5872    5873    5874
CTRIA6      2500       1    1269    1309    1311    5866    5869    5872
CTRIA6      2501       1    1268    1147    1148    5875    5876    5877
CTRIA6      2502       1    1268    1311    1147    5873    5878    5875
CTRIA6      2503       1    1146    1310    1145    5879    5880    5881
CTRIA6      2504       1    1311    1146    1147    5882    5883    5878
CTRIA6      2505       1    1311    1310    1146    5871    5879    5882
CTRIA6      2506       1    1276    1313    1275    5884    5885    5886
CTRIA6      2507       1    1313    1314    1312    5887    5888    5889
CTRIA6      2508       1    1314    1276    1277    5890    5891    5892
CTRIA6      2509       1    1314    1313    1276    5887    5884    5890
CTRIA6      2510       1    1277    1302    1314    5893    5894    5892
CTRIA6      2511       1    1277    1278    1302    5895    5836    5893
CTRIA6      2512       1    1312    1301    1300    5896    5841    5897
CTRIA6      2513       1    1301    1314    1302    5898    5894    5845
CTRIA6      2514       1    1301    1312    1314    5896    5888    5898
CTRIA6      2515       1    1303    1315    1304    5899    5900    5852
CTRIA6      2516       1    1310    1303    1145    5901    5848    5880
CTRIA6      2517       1    1315    1310    1309    5902    5870    5903
CTRIA6      2518       1    1315    1303    1310    5899    5901    5902
CTRIA6      2519       1    1316    1270    1271    5904    5905    5906
CTRIA6      2520       1    1309    1316    1315    5907    5908    5903
CTRIA6      2521       1    1309    1270    1316    5868    5904    5907
CTRIA6      2522       1    1317    1308    1307    5909    5860    5910
CTRIA6      2523       1    1308    1312    1300    5911    5897    5857
CTRIA6      2524       1    1312    1317    1313    5912    5913    5889
CTRIA6      2525       1    1312    1308    1317    5911    5909    5912
CTRIA6      2526       1    1275    1318    1274    5914    5915    5916
CTRIA6      2527       1    1318    1313    1317    5917    5913    5918
CTRIA6      2528       1    1318    1275    1313    5914    5885    5917
CTRIA6      2529       1    1304    1319    1305    5919    5920    5855
CTRIA6      2530       1    1319    1315    1316    5921    5908    5922
CTRIA6      2531       1    1319    1304    1315    5919    5900    5921
CTRIA6      2532       1    1320    1307    1306    5923    5865    5924
CTRIA6      2533       1    1317    1320    1318    5925    5926    5918
CTRIA6      2534       1    1317    1307    1320    5910    5923    5925
CTRIA6      2535       1    1321    1271    1272    5927    5928    5929
CTRIA6      2536       1    1316    1321    1319    5930    5931    5922
CTRIA6      2537       1    1316    1271    1321    5906    5927    5930
CTRIA6      2538       1    1274    1322    1273    5932    5933    5934
CTRIA6      2539       1    1322    1318    1320    5935    5926    5936
CTRIA6      2540       1    1322    1274    1318    5932    5915    5935
CTRIA6      2541       1    1272    1323    1321    5937    5938    5929
CTRIA6      2542       1    1323    1273    1322    5939    5933    5940
CTRIA6      2543       1    1323    1272    1273    5937    5941    5939
CTRIA6      2544       1    1306    1324    1320    5942    5943    5924
CTRIA6      2545       1    1324    1305    1319    5944    5920    5945
CTRIA6      2546       1    1324    1306    1305    5942    5863    5944
CTRIA6      2547       1    1321    1324    1319    5946    5945    5931
CTRIA6      2548       1    1324    1322    1320    5947    5936    5943
CTRIA6      2549       1    1323    1324    1321    5948    5946    5938
CTRIA6      2550       1    1323    1322    1324    5940    5947    5948
CTRIA6      2551       1    1328    8991    8990    5949    9017    5950
CTRIA6      2552       1    8991    1330    8992    5951    5952    9018
CTRIA6      2553       1    1330    1328    1329    5953    5954    5955
CTRIA6      2554       1    1330    8991    1328    5951    5949    5953
CTRIA6      2555       1    8992    1267    8993    5956    5957    9019
CTRIA6      2556       1    1329    1266    1330    5958    5959    5955
CTRIA6      2557       1    1329    1265    1266    5960    5961    5958
CTRIA6      2558       1    1330    1267    8992    5962    5956    5952
CTRIA6      2559       1    1330    1266    1267    5959    5963    5962
CTRIA6      2560       1    1328    1332    1329    5964    5965    5954
CTRIA6      2561       1    1332    1333    1331    5966    5967    5968
CTRIA6      2562       1    1333    1328    8990    5969    5950    5970
CTRIA6      2563       1    1333    1332    1328    5966    5964    5969
CTRIA6      2564       1    1331    1278    1277    5971    5895    5972
CTRIA6      2565       1    1331    1333    1278    5967    5973    5971
CTRIA6      2566       1    8989    1333    8990    5974    5970    9020
CTRIA6      2567       1    8989    1278    1333    5837    5973    5974
CTRIA6      2568       1    1334    1329    1332    5975    5965    5976
CTRIA6      2569       1    1265    1334    1264    5977    5978    5979
CTRIA6      2570       1    1265    1329    1334    5960    5975    5977
CTRIA6      2571       1    1263    1335    1327    5980    5981    5982
CTRIA6      2572       1    1335    1264    1334    5983    5978    5984
CTRIA6      2573       1    1335    1263    1264    5980    5985    5983
CTRIA6      2574       1    1336    1332    1331    5986    5968    5987
CTRIA6      2575       1    1334    1336    1335    5988    5989    5984
CTRIA6      2576       1    1334    1332    1336    5976    5986    5988
CTRIA6      2577       1    1327    1337    1326    5990    5991    5992
CTRIA6      2578       1    1337    1335    1336    5993    5989    5994
CTRIA6      2579       1    1337    1327    1335    5990    5981    5993
CTRIA6      2580       1    1338    1331    1277    5995    5972    5996
CTRIA6      2581       1    1336    1338    1337    5997    5998    5994
CTRIA6      2582       1    1336    1331    1338    5987    5995    5997
CTRIA6      2583       1    1326    1339    1325    5999    6000    6001
CTRIA6      2584       1    1339    1337    1338    6002    5998    6003
CTRIA6      2585       1    1339    1326    1337    5999    5991    6002
CTRIA6      2586       1    1325    1275    1274    6004    5916    6005
CTRIA6      2587       1    1338    1276    1339    6006    6007    6003
CTRIA6      2588       1    1338    1277    1276    5996    5891    6006
CTRIA6      2589       1    1339    1275    1325    6008    6004    6000
CTRIA6      2590       1    1339    1276    1275    6007    5886    6008
CTRIA6      2591       1    1274    1346    1325    6009    6010    6005
CTRIA6      2592       1    1345    1272    1344    6011    6012    6013
CTRIA6      2593       1    1273    1346    1274    6014    6009    5934
CTRIA6      2594       1    1345    1273    1272    6015    5941    6011
CTRIA6      2595       1    1345    1346    1273    6016    6014    6015
CTRIA6      2596       1    1344    1271    1343    6017    6018    6019
CTRIA6      2597       1    1344    1272    1271    6012    5928    6017
CTRIA6      2598       1    1343    1270    1342    6020    6021    6022
CTRIA6      2599       1    1343    1271    1270    6018    5905    6020
CTRIA6      2600       1    1342    1269    1341    6023    6024    6025
CTRIA6      2601       1    1342    1270    1269    6021    5867    6023
CTRIA6      2602       1    1148    1340    1268    6026    6027    5877
CTRIA6      2603       1    1148    1149    1340    6028    6029    6026
CTRIA6      2604       1    1268    1341    1269    6030    6024    5874
CTRIA6      2605       1    1268    1340    1341    6027    6031    6030
CTRIA6      2606       1    1349    1346    1347    6032    6033    6034
CTRIA6      2607       1    1325    1349    1326    6035    6036    6001
CTRIA6      2608       1    1325    1346    1349    6010    6032    6035
CTRIA6      2609       1    1327    1262    1263    6037    6038    5982
CTRIA6      2610       1    1260    1348    1259    6039    6040    6041
CTRIA6      2611       1    1327    1350    1262    6042    6043    6037
CTRIA6      2612       1    1350    1326    1349    6044    6036    6045
CTRIA6      2613       1    1350    1327    1326    6042    5992    6044
CTRIA6      2614       1    1350    1261    1262    6046    6047    6043
CTRIA6      2615       1    1351    1347    1348    6048    6049    6050
CTRIA6      2616       1    1349    1351    1350    6051    6052    6045
CTRIA6      2617       1    1349    1347    1351    6034    6048    6051
CTRIA6      2618       1    1351    1261    1350    6053    6046    6052
CTRIA6      2619       1    1260    1351    1348    6054    6050    6039
CTRIA6      2620       1    1260    1261    1351    6055    6053    6054
CTRIA6      2621       1    1253    1151    1152    6056    6057    6058
CTRIA6      2622       1    1354    1253    1254    6059    6060    6061
CTRIA6      2623       1    1151    1354    1150    6062    6063    6064
CTRIA6      2624       1    1151    1253    1354    6056    6059    6062
CTRIA6      2625       1    1355    1150    1354    6065    6063    6066
CTRIA6      2626       1    1149    1355    1340    6067    6068    6029
CTRIA6      2627       1    1149    1150    1355    6069    6065    6067
CTRIA6      2628       1    1341    1356    1353    6070    6071    6072
CTRIA6      2629       1    1356    1340    1355    6073    6068    6074
CTRIA6      2630       1    1356    1341    1340    6070    6031    6073
CTRIA6      2631       1    1357    1352    1353    6075    6076    6077
CTRIA6      2632       1    1256    1357    1255    6078    6079    6080
CTRIA6      2633       1    1352    1256    1257    6081    6082    6083
CTRIA6      2634       1    1352    1357    1256    6075    6078    6081
CTRIA6      2635       1    1356    1357    1353    6084    6077    6071
CTRIA6      2636       1    1254    1358    1354    6085    6086    6061
CTRIA6      2637       1    1358    1255    1357    6087    6079    6088
CTRIA6      2638       1    1358    1254    1255    6085    6089    6087
CTRIA6      2639       1    1356    1358    1357    6090    6088    6084
CTRIA6      2640       1    1358    1355    1354    6091    6066    6086
CTRIA6      2641       1    1358    1356    1355    6090    6074    6091
CTRIA6      2642       1    1257    1360    1352    6092    6093    6083
CTRIA6      2643       1    1257    1258    1360    6094    6095    6092
CTRIA6      2644       1    1359    1259    1348    6096    6040    6097
CTRIA6      2645       1    1258    1359    1360    6098    6099    6095
CTRIA6      2646       1    1258    1259    1359    6100    6096    6098
CTRIA6      2647       1    1342    1353    1361    6101    6102    6103
CTRIA6      2648       1    1342    1341    1353    6025    6072    6101
CTRIA6      2649       1    1361    1352    1360    6104    6093    6105
CTRIA6      2650       1    1361    1353    1352    6102    6076    6104
CTRIA6      2651       1    1345    1347    1346    6106    6033    6016
CTRIA6      2652       1    1347    1362    1348    6107    6108    6049
CTRIA6      2653       1    1362    1345    1344    6109    6013    6110
CTRIA6      2654       1    1362    1347    1345    6107    6106    6109
CTRIA6      2655       1    1360    1363    1361    6111    6112    6105
CTRIA6      2656       1    1360    1359    1363    6099    6113    6111
CTRIA6      2657       1    1362    1359    1348    6114    6097    6108
CTRIA6      2658       1    1362    1363    1359    6115    6113    6114
CTRIA6      2659       1    1361    1343    1342    6116    6022    6103
CTRIA6      2660       1    1361    1363    1343    6112    6117    6116
CTRIA6      2661       1    1344    1363    1362    6118    6115    6110
CTRIA6      2662       1    1344    1343    1363    6019    6117    6118
CTRIA6      2663       1    1253    1373    1254    6119    6120    6060
CTRIA6      2664       1    1373    1374    1372    6121    6122    6123
CTRIA6      2665       1    1374    1253    1152    6124    6058    6125
CTRIA6      2666       1    1374    1373    1253    6121    6119    6124
CTRIA6      2667       1    1372    1375    1371    6126    6127    6128
CTRIA6      2668       1    1374    1375    1372    6129    6126    6122
CTRIA6      2669       1    1153    1374    1152    6130    6125    6131
CTRIA6      2670       1    1153    1375    1374    6132    6129    6130
CTRIA6      2671       1    1371    1376    1370    6133    6134    6135
CTRIA6      2672       1    1154    1375    1153    6136    6132    6137
CTRIA6      2673       1    1375    1376    1371    6138    6133    6127
CTRIA6      2674       1    1375    1154    1376    6136    6139    6138
CTRIA6      2675       1    1370    1377    1369    6140    6141    6142
CTRIA6      2676       1    1155    1376    1154    6143    6139    6144
CTRIA6      2677       1    1376    1377    1370    6145    6140    6134
CTRIA6      2678       1    1376    1155    1377    6143    6146    6145
CTRIA6      2679       1    1232    1157    1158    6147    6148    6149
CTRIA6      2680       1    1157    1378    1156    6150    6151    6152
CTRIA6      2681       1    1378    1232    1233    6153    6154    6155
CTRIA6      2682       1    1378    1157    1232    6150    6147    6153
CTRIA6      2683       1    1156    1377    1155    6156    6146    6157
CTRIA6      2684       1    1369    1378    1233    6158    6155    6159
CTRIA6      2685       1    1378    1377    1156    6160    6156    6151
CTRIA6      2686       1    1378    1369    1377    6158    6141    6160
CTRIA6      2687       1    1386    1368    1387    6161    6162    6163
CTRIA6      2688       1    1386    1367    1368    6164    6165    6161
CTRIA6      2689       1    1387    1256    1255    6166    6080    6167
CTRIA6      2690       1    1387    1368    1256    6162    6168    6166
CTRIA6      2691       1    1388    1254    1373    6169    6120    6170
CTRIA6      2692       1    1255    1388    1387    6171    6172    6167
CTRIA6      2693       1    1255    1254    1388    6089    6169    6171
CTRIA6      2694       1    1384    1373    1372    6173    6123    6174
CTRIA6      2695       1    1387    1385    1386    6175    6176    6163
CTRIA6      2696       1    1387    1388    1385    6172    6177    6175
CTRIA6      2697       1    1384    1388    1373    6178    6170    6173
CTRIA6      2698       1    1384    1385    1388    6179    6177    6178
CTRIA6      2699       1    1379    1371    1370    6180    6135    6181
CTRIA6      2700       1    1371    1389    1372    6182    6183    6128
CTRIA6      2701       1    1389    1379    1380    6184    6185    6186
CTRIA6      2702       1    1389    1371    1379    6182    6180    6184
CTRIA6      2703       1    1383    1366    1390    6187    6188    6189
CTRIA6      2704       1    1383    1365    1366    6190    6191    6187
CTRIA6      2705       1    1390    1367    1386    6192    6164    6193
CTRIA6      2706       1    1390    1366    1367    6188    6194    6192
CTRIA6      2707       1    1390    1382    1383    6195    6196    6189
CTRIA6      2708       1    1390    1391    1382    6197    6198    6195
CTRIA6      2709       1    1391    1386    1385    6199    6176    6200
CTRIA6      2710       1    1391    1390    1386    6197    6193    6199
CTRIA6      2711       1    1380    1392    1389    6201    6202    6186
CTRIA6      2712       1    1380    1381    1392    6203    6204    6201
CTRIA6      2713       1    1391    1381    1382    6205    6206    6198
CTRIA6      2714       1    1391    1392    1381    6207    6204    6205
CTRIA6      2715       1    1389    1384    1372    6208    6174    6183
CTRIA6      2716       1    1389    1392    1384    6202    6209    6208
CTRIA6      2717       1    1385    1392    1391    6210    6207    6200
CTRIA6      2718       1    1385    1384    1392    6179    6209    6210
CTRIA6      2719       1    1234    1369    1233    6211    6159    6212
CTRIA6      2720       1    1369    1393    1370    6213    6214    6142
CTRIA6      2721       1    1393    1234    1235    6215    6216    6217
CTRIA6      2722       1    1393    1369    1234    6213    6211    6215
CTRIA6      2723       1    1240    1364    1394    6218    6219    6220
CTRIA6      2724       1    1240    1241    1364    6221    6222    6218
CTRIA6      2725       1    1394    1365    1383    6223    6190    6224
CTRIA6      2726       1    1394    1364    1365    6219    6225    6223
CTRIA6      2727       1    1393    1379    1370    6226    6181    6214
CTRIA6      2728       1    1393    1395    1379    6227    6228    6226
CTRIA6      2729       1    1395    1235    1236    6229    6230    6231
CTRIA6      2730       1    1395    1393    1235    6227    6217    6229
CTRIA6      2731       1    1239    1394    1396    6232    6233    6234
CTRIA6      2732       1    1239    1240    1394    6235    6220    6232
CTRIA6      2733       1    1396    1383    1382    6236    6196    6237
CTRIA6      2734       1    1396    1394    1383    6233    6224    6236
CTRIA6      2735       1    1396    1238    1239    6238    6239    6234
CTRIA6      2736       1    1396    1397    1238    6240    6241    6238
CTRIA6      2737       1    1397    1382    1381    6242    6206    6243
CTRIA6      2738       1    1397    1396    1382    6240    6237    6242
CTRIA6      2739       1    1236    1398    1395    6244    6245    6231
CTRIA6      2740       1    1236    1237    1398    6246    6247    6244
CTRIA6      2741       1    1397    1237    1238    6248    6249    6241
CTRIA6      2742       1    1397    1398    1237    6250    6247    6248
CTRIA6      2743       1    1395    1380    1379    6251    6185    6228
CTRIA6      2744       1    1395    1398    1380    6245    6252    6251
CTRIA6      2745       1    1381    1398    1397    6253    6250    6243
CTRIA6      2746       1    1381    1380    1398    6203    6252    6253
CTRIA6      2747       1    1408    8997    8996    6254    9021    6255
CTRIA6      2748       1    8997    1410    8998    6256    6257    9022
CTRIA6      2749       1    1410    1408    1409    6258    6259    6260
CTRIA6      2750       1    1410    8997    1408    6256    6254    6258
CTRIA6      2751       1    8998    1252    8999    6261    6262    9023
CTRIA6      2752       1    1409    1251    1410    6263    6264    6260
CTRIA6      2753       1    1409    1250    1251    6265    6266    6263
CTRIA6      2754       1    1410    1252    8998    6267    6261    6257
CTRIA6      2755       1    1410    1251    1252    6264    6268    6267
CTRIA6      2756       1    1407    1249    1411    6269    6270    6271
CTRIA6      2757       1    1407    1248    1249    6272    6273    6269
CTRIA6      2758       1    1411    1250    1409    6274    6265    6275
CTRIA6      2759       1    1411    1249    1250    6270    6276    6274
CTRIA6      2760       1    1404    8995    8994    6277    9024    6278
CTRIA6      2761       1    8995    1412    8996    6279    6280    9025
CTRIA6      2762       1    1412    1404    1405    6281    6282    6283
CTRIA6      2763       1    1412    8995    1404    6279    6277    6281
CTRIA6      2764       1    1409    1413    1411    6284    6285    6275
CTRIA6      2765       1    1409    1408    1413    6259    6286    6284
CTRIA6      2766       1    1412    1408    8996    6287    6255    6280
CTRIA6      2767       1    1412    1413    1408    6288    6286    6287
CTRIA6      2768       1    1411    1406    1407    6289    6290    6271
CTRIA6      2769       1    1411    1413    1406    6285    6291    6289
CTRIA6      2770       1    1405    1413    1412    6292    6288    6283
CTRIA6      2771       1    1405    1406    1413    6293    6291    6292
CTRIA6      2772       1    1246    1403    1245    6294    6295    6296
CTRIA6      2773       1    1248    1414    1247    6297    6298    6299
CTRIA6      2774       1    1248    1407    1414    6272    6300    6297
CTRIA6      2775       1    1246    1415    1403    6301    6302    6294
CTRIA6      2776       1    1415    1247    1414    6303    6298    6304
CTRIA6      2777       1    1415    1246    1247    6301    6305    6303
CTRIA6      2778       1    8993    1417    8994    6306    6307    9026
CTRIA6      2779       1    1266    1416    1267    6308    6309    5963
CTRIA6      2780       1    1266    1399    1416    6310    6311    6308
CTRIA6      2781       1    1267    1417    8993    6312    6306    5957
CTRIA6      2782       1    1267    1416    1417    6309    6313    6312
CTRIA6      2783       1    1418    1399    1400    6314    6315    6316
CTRIA6      2784       1    1404    1417    1419    6317    6318    6319
CTRIA6      2785       1    1404    8994    1417    6278    6307    6317
CTRIA6      2786       1    1418    1416    1399    6320    6311    6314
CTRIA6      2787       1    1416    1419    1417    6321    6318    6313
CTRIA6      2788       1    1416    1418    1419    6320    6322    6321
CTRIA6      2789       1    1419    1405    1404    6323    6282    6319
CTRIA6      2790       1    1420    1405    1419    6324    6323    6325
CTRIA6      2791       1    1407    1421    1414    6326    6327    6300
CTRIA6      2792       1    1407    1406    1421    6290    6328    6326
CTRIA6      2793       1    1420    1406    1405    6329    6293    6324
CTRIA6      2794       1    1420    1421    1406    6330    6328    6329
CTRIA6      2795       1    1415    1402    1403    6331    6332    6302
CTRIA6      2796       1    1415    1422    1402    6333    6334    6331
CTRIA6      2797       1    1422    1414    1421    6335    6327    6336
CTRIA6      2798       1    1422    1415    1414    6333    6304    6335
CTRIA6      2799       1    1400    1423    1418    6337    6338    6316
CTRIA6      2800       1    1400    1401    1423    6339    6340    6337
CTRIA6      2801       1    1422    1401    1402    6341    6342    6334
CTRIA6      2802       1    1422    1423    1401    6343    6340    6341
CTRIA6      2803       1    1418    1420    1419    6344    6325    6322
CTRIA6      2804       1    1418    1423    1420    6338    6345    6344
CTRIA6      2805       1    1421    1423    1422    6346    6343    6336
CTRIA6      2806       1    1421    1420    1423    6330    6345    6346
CTRIA6      2807       1    1258    1429    1428    6347    6348    6349
CTRIA6      2808       1    1258    1257    1429    6094    6350    6347
CTRIA6      2809       1    1368    1257    1256    6351    6082    6168
CTRIA6      2810       1    1368    1429    1257    6352    6350    6351
CTRIA6      2811       1    1367    1429    1368    6353    6352    6165
CTRIA6      2812       1    1430    1429    1367    6354    6353    6355
CTRIA6      2813       1    1428    1430    1427    6356    6357    6358
CTRIA6      2814       1    1428    1429    1430    6348    6354    6356
CTRIA6      2815       1    1427    1431    1426    6359    6360    6361
CTRIA6      2816       1    1427    1430    1431    6357    6362    6359
CTRIA6      2817       1    1366    1430    1367    6363    6355    6194
CTRIA6      2818       1    1366    1431    1430    6364    6362    6363
CTRIA6      2819       1    1424    1242    1243    6365    6366    6367
CTRIA6      2820       1    1426    1432    1425    6368    6369    6370
CTRIA6      2821       1    1426    1431    1432    6360    6371    6368
CTRIA6      2822       1    1365    1431    1366    6372    6364    6191
CTRIA6      2823       1    1365    1432    1431    6373    6371    6372
CTRIA6      2824       1    1364    1432    1365    6374    6373    6225
CTRIA6      2825       1    1424    1433    1242    6375    6376    6365
CTRIA6      2826       1    1433    1425    1432    6377    6369    6378
CTRIA6      2827       1    1433    1424    1425    6375    6379    6377
CTRIA6      2828       1    1364    1433    1432    6380    6378    6374
CTRIA6      2829       1    1433    1241    1242    6381    6382    6376
CTRIA6      2830       1    1433    1364    1241    6380    6222    6381
CTRIA6      2831       1    1438    1427    1426    6383    6361    6384
CTRIA6      2832       1    1440    1438    1439    6385    6386    6387
CTRIA6      2833       1    1427    1440    1428    6388    6389    6358
CTRIA6      2834       1    1427    1438    1440    6383    6385    6388
CTRIA6      2835       1    1260    1439    1261    6390    6391    6055
CTRIA6      2836       1    1428    1259    1258    6392    6100    6349
CTRIA6      2837       1    1428    1440    1259    6389    6393    6392
CTRIA6      2838       1    1260    1440    1439    6394    6387    6390
CTRIA6      2839       1    1260    1259    1440    6041    6393    6394
CTRIA6      2840       1    1262    1437    1263    6395    6396    6038
CTRIA6      2841       1    1441    1261    1439    6397    6391    6398
CTRIA6      2842       1    1262    1441    1437    6399    6400    6395
CTRIA6      2843       1    1262    1261    1441    6047    6397    6399
CTRIA6      2844       1    1434    1425    1424    6401    6379    6402
CTRIA6      2845       1    1442    1434    1435    6403    6404    6405
CTRIA6      2846       1    1425    1442    1426    6406    6407    6370
CTRIA6      2847       1    1425    1434    1442    6401    6403    6406
CTRIA6      2848       1    1441    1436    1437    6408    6409    6400
CTRIA6      2849       1    1443    1439    1438    6410    6386    6411
CTRIA6      2850       1    1441    1443    1436    6412    6413    6408
CTRIA6      2851       1    1441    1439    1443    6398    6410    6412
CTRIA6      2852       1    1443    1435    1436    6414    6415    6413
CTRIA6      2853       1    1442    1438    1426    6416    6384    6407
CTRIA6      2854       1    1443    1442    1435    6417    6405    6414
CTRIA6      2855       1    1443    1438    1442    6411    6416    6417
CTRIA6      2856       1    1445    1265    1264    6418    5979    6419
CTRIA6      2857       1    1265    1399    1266    6420    6310    5961
CTRIA6      2858       1    1265    1445    1399    6418    6421    6420
CTRIA6      2859       1    1444    1263    1437    6422    6396    6423
CTRIA6      2860       1    1264    1444    1445    6424    6425    6419
CTRIA6      2861       1    1264    1263    1444    5985    6422    6424
CTRIA6      2862       1    1243    1447    1424    6426    6427    6367
CTRIA6      2863       1    1243    1244    1447    6428    6429    6426
CTRIA6      2864       1    1244    1446    1447    6430    6431    6429
CTRIA6      2865       1    1446    1245    1403    6432    6295    6433
CTRIA6      2866       1    1446    1244    1245    6430    6434    6432
CTRIA6      2867       1    1400    1445    1449    6435    6436    6437
CTRIA6      2868       1    1400    1399    1445    6315    6421    6435
CTRIA6      2869       1    1448    1437    1436    6438    6409    6439
CTRIA6      2870       1    1444    1449    1445    6440    6436    6425
CTRIA6      2871       1    1448    1444    1437    6441    6423    6438
CTRIA6      2872       1    1448    1449    1444    6442    6440    6441
CTRIA6      2873       1    1449    1401    1400    6443    6339    6437
CTRIA6      2874       1    1450    1401    1449    6444    6443    6445
CTRIA6      2875       1    1403    1451    1446    6446    6447    6433
CTRIA6      2876       1    1403    1402    1451    6332    6448    6446
CTRIA6      2877       1    1450    1402    1401    6449    6342    6444
CTRIA6      2878       1    1450    1451    1402    6450    6448    6449
CTRIA6      2879       1    1447    1434    1424    6451    6402    6427
CTRIA6      2880       1    1447    1452    1434    6452    6453    6451
CTRIA6      2881       1    1452    1446    1451    6454    6447    6455
CTRIA6      2882       1    1452    1447    1446    6452    6431    6454
CTRIA6      2883       1    1436    1453    1448    6456    6457    6439
CTRIA6      2884       1    1436    1435    1453    6415    6458    6456
CTRIA6      2885       1    1452    1435    1434    6459    6404    6453
CTRIA6      2886       1    1452    1453    1435    6460    6458    6459
CTRIA6      2887       1    1448    1450    1449    6461    6445    6442
CTRIA6      2888       1    1448    1453    1450    6457    6462    6461
CTRIA6      2889       1    1451    1453    1452    6463    6460    6455
CTRIA6      2890       1    1451    1450    1453    6450    6462    6463
CTRIA6      2891       1    1241    1463    1464    6464    6465    6466
CTRIA6      2892       1    1241    1240    1463    6221    6467    6464
CTRIA6      2893       1    1462    1240    1239    6468    6235    6469
CTRIA6      2894       1    1462    1463    1240    6470    6467    6468
CTRIA6      2895       1    1460    1238    1237    6471    6249    6472
CTRIA6      2896       1    1460    1461    1238    6473    6474    6471
CTRIA6      2897       1    1239    1461    1462    6475    6476    6469
CTRIA6      2898       1    1239    1238    1461    6239    6474    6475
CTRIA6      2899       1    1237    1459    1460    6477    6478    6472
CTRIA6      2900       1    1237    1236    1459    6246    6479    6477
CTRIA6      2901       1    1458    1236    1235    6480    6230    6481
CTRIA6      2902       1    1458    1459    1236    6482    6479    6480
CTRIA6      2903       1    1235    1457    1458    6483    6484    6481
CTRIA6      2904       1    1235    1234    1457    6216    6485    6483
CTRIA6      2905       1    1454    1158    1159    6486    6487    6488
CTRIA6      2906       1    1232    1454    1455    6489    6490    6491
CTRIA6      2907       1    1232    1158    1454    6149    6486    6489
CTRIA6      2908       1    1234    1456    1457    6492    6493    6485
CTRIA6      2909       1    1234    1233    1456    6212    6494    6492
CTRIA6      2910       1    1455    1233    1232    6495    6154    6491
CTRIA6      2911       1    1455    1456    1233    6496    6494    6495
CTRIA6      2912       1    1468    1245    1467    6497    6498    6499
CTRIA6      2913       1    1246    1468    1469    6500    6501    6502
CTRIA6      2914       1    1246    1245    1468    6296    6497    6500
CTRIA6      2915       1    1244    1467    1245    6503    6498    6434
CTRIA6      2916       1    1244    1466    1467    6504    6505    6503
CTRIA6      2917       1    1464    1242    1241    6506    6382    6466
CTRIA6      2918       1    1464    1465    1242    6507    6508    6506
CTRIA6      2919       1    1243    1466    1244    6509    6504    6428
CTRIA6      2920       1    1465    1243    1242    6510    6366    6508
CTRIA6      2921       1    1465    1466    1243    6511    6509    6510
CTRIA6      2922       1    1250    1473    1251    6512    6513    6266
CTRIA6      2923       1    1250    1472    1473    6514    6515    6512
CTRIA6      2924       1    8999    1475    9000    6516    6517    9027
CTRIA6      2925       1    1251    1474    1252    6518    6519    6268
CTRIA6      2926       1    1251    1473    1474    6513    6520    6518
CTRIA6      2927       1    1252    1475    8999    6521    6516    6262
CTRIA6      2928       1    1252    1474    1475    6519    6522    6521
CTRIA6      2929       1    1472    1249    1471    6523    6524    6525
CTRIA6      2930       1    1472    1250    1249    6514    6276    6523
CTRIA6      2931       1    1469    1247    1246    6526    6305    6502
CTRIA6      2932       1    1471    1248    1470    6527    6528    6529
CTRIA6      2933       1    1471    1249    1248    6524    6273    6527
CTRIA6      2934       1    1470    1247    1469    6530    6526    6531
CTRIA6      2935       1    1470    1248    1247    6528    6299    6530
CTRIA6      2936       1    1492    1469    1491    6532    6533    6534
CTRIA6      2937       1    1492    1470    1469    6535    6531    6532
CTRIA6      2938       1    1489    1466    1488    6536    6537    6538
CTRIA6      2939       1    1467    1489    1490    6539    6540    6541
CTRIA6      2940       1    1467    1466    1489    6505    6536    6539
CTRIA6      2941       1    1468    1491    1469    6542    6533    6501
CTRIA6      2942       1    1490    1468    1467    6543    6499    6541
CTRIA6      2943       1    1490    1491    1468    6544    6542    6543
CTRIA6      2944       1    1470    1493    1471    6545    6546    6529
CTRIA6      2945       1    1470    1492    1493    6535    6547    6545
CTRIA6      2946       1    1471    1494    1472    6548    6549    6525
CTRIA6      2947       1    1471    1493    1494    6546    6550    6548
CTRIA6      2948       1    1472    1495    1473    6551    6552    6515
CTRIA6      2949       1    1472    1494    1495    6549    6553    6551
CTRIA6      2950       1    1473    1496    1474    6554    6555    6520
CTRIA6      2951       1    1473    1495    1496    6552    6556    6554
CTRIA6      2952       1    9000    1498    9001    6557    6558    9028
CTRIA6      2953       1    1474    1497    1475    6559    6560    6522
CTRIA6      2954       1    1474    1496    1497    6555    6561    6559
CTRIA6      2955       1    1475    1498    9000    6562    6557    6517
CTRIA6      2956       1    1475    1497    1498    6560    6563    6562
CTRIA6      2957       1    1459    1481    1482    6564    6565    6566
CTRIA6      2958       1    1459    1458    1481    6482    6567    6564
CTRIA6      2959       1    1480    1458    1457    6568    6484    6569
CTRIA6      2960       1    1480    1481    1458    6570    6567    6568
CTRIA6      2961       1    1457    1479    1480    6571    6572    6569
CTRIA6      2962       1    1457    1456    1479    6493    6573    6571
CTRIA6      2963       1    1476    1159    1160    6574    6575    6576
CTRIA6      2964       1    1454    1476    1477    6577    6578    6579
CTRIA6      2965       1    1454    1159    1476    6488    6574    6577
CTRIA6      2966       1    1456    1478    1479    6580    6581    6573
CTRIA6      2967       1    1456    1455    1478    6496    6582    6580
CTRIA6      2968       1    1477    1455    1454    6583    6490    6579
CTRIA6      2969       1    1477    1478    1455    6584    6582    6583
CTRIA6      2970       1    1465    1488    1466    6585    6537    6511
CTRIA6      2971       1    1487    1464    1486    6586    6587    6588
CTRIA6      2972       1    1465    1487    1488    6589    6590    6585
CTRIA6      2973       1    1465    1464    1487    6507    6586    6589
CTRIA6      2974       1    1482    1460    1459    6591    6478    6566
CTRIA6      2975       1    1482    1483    1460    6592    6593    6591
CTRIA6      2976       1    1461    1483    1484    6594    6595    6596
CTRIA6      2977       1    1461    1460    1483    6473    6593    6594
CTRIA6      2978       1    1463    1486    1464    6597    6587    6465
CTRIA6      2979       1    1484    1462    1461    6598    6476    6596
CTRIA6      2980       1    1484    1485    1462    6599    6600    6598
CTRIA6      2981       1    1463    1485    1486    6601    6602    6597
CTRIA6      2982       1    1463    1462    1485    6470    6600    6601
CTRIA6      2983       1    1499    1160    1161    6603    6604    6605
CTRIA6      2984       1    1477    1500    1501    6606    6607    6608
CTRIA6      2985       1    1477    1476    1500    6578    6609    6606
CTRIA6      2986       1    1499    1476    1160    6610    6576    6603
CTRIA6      2987       1    1499    1500    1476    6611    6609    6610
CTRIA6      2988       1    1480    1503    1504    6612    6613    6614
CTRIA6      2989       1    1501    1478    1477    6615    6584    6608
CTRIA6      2990       1    1501    1502    1478    6616    6617    6615
CTRIA6      2991       1    1479    1503    1480    6618    6612    6572
CTRIA6      2992       1    1502    1479    1478    6619    6581    6617
CTRIA6      2993       1    1502    1503    1479    6620    6618    6619
CTRIA6      2994       1    1486    1509    1510    6621    6622    6623
CTRIA6      2995       1    1507    1484    1483    6624    6595    6625
CTRIA6      2996       1    1507    1508    1484    6626    6627    6624
CTRIA6      2997       1    1485    1509    1486    6628    6621    6602
CTRIA6      2998       1    1508    1485    1484    6629    6599    6627
CTRIA6      2999       1    1508    1509    1485    6630    6628    6629
CTRIA6      3000       1    1483    1506    1507    6631    6632    6625
CTRIA6      3001       1    1504    1481    1480    6633    6570    6614
CTRIA6      3002       1    1504    1505    1481    6634    6635    6633
CTRIA6      3003       1    1482    1506    1483    6636    6631    6592
CTRIA6      3004       1    1505    1482    1481    6637    6565    6635
CTRIA6      3005       1    1505    1506    1482    6638    6636    6637
CTRIA6      3006       1    1493    1517    1494    6639    6640    6550
CTRIA6      3007       1    1493    1516    1517    6641    6642    6639
CTRIA6      3008       1    1494    1518    1495    6643    6644    6553
CTRIA6      3009       1    1494    1517    1518    6640    6645    6643
CTRIA6      3010       1    1495    1519    1496    6646    6647    6556
CTRIA6      3011       1    1495    1518    1519    6644    6648    6646
CTRIA6      3012       1    1496    1520    1497    6649    6650    6561
CTRIA6      3013       1    1496    1519    1520    6647    6651    6649
CTRIA6      3014       1    9001    1522    9002    6652    6653    9029
CTRIA6      3015       1    1497    1521    1498    6654    6655    6563
CTRIA6      3016       1    1497    1520    1521    6650    6656    6654
CTRIA6      3017       1    1498    1522    9001    6657    6652    6558
CTRIA6      3018       1    1498    1521    1522    6655    6658    6657
CTRIA6      3019       1    1489    1512    1513    6659    6660    6661
CTRIA6      3020       1    1510    1487    1486    6662    6588    6623
CTRIA6      3021       1    1510    1511    1487    6663    6664    6662
CTRIA6      3022       1    1488    1512    1489    6665    6659    6538
CTRIA6      3023       1    1511    1488    1487    6666    6590    6664
CTRIA6      3024       1    1511    1512    1488    6667    6665    6666
CTRIA6      3025       1    1516    1492    1515    6668    6669    6670
CTRIA6      3026       1    1516    1493    1492    6641    6547    6668
CTRIA6      3027       1    1513    1490    1489    6671    6540    6661
CTRIA6      3028       1    1513    1514    1490    6672    6673    6671
CTRIA6      3029       1    1491    1515    1492    6674    6669    6534
CTRIA6      3030       1    1514    1491    1490    6675    6544    6673
CTRIA6      3031       1    1514    1515    1491    6676    6674    6675
CTRIA6      3032       1    9002    1547    9003    6677    6678    9030
CTRIA6      3033       1    1521    1546    1522    6679    6680    6658
CTRIA6      3034       1    1521    1545    1546    6681    6682    6679
CTRIA6      3035       1    1522    1547    9002    6683    6677    6653
CTRIA6      3036       1    1522    1546    1547    6680    6684    6683
CTRIA6      3037       1    1543    1518    1542    6685    6686    6687
CTRIA6      3038       1    1545    1520    1544    6688    6689    6690
CTRIA6      3039       1    1545    1521    1520    6681    6656    6688
CTRIA6      3040       1    1543    1519    1518    6691    6648    6685
CTRIA6      3041       1    1519    1544    1520    6692    6689    6651
CTRIA6      3042       1    1519    1543    1544    6691    6693    6692
CTRIA6      3043       1    1537    1512    1536    6694    6695    6696
CTRIA6      3044       1    1513    1537    1538    6697    6698    6699
CTRIA6      3045       1    1513    1512    1537    6660    6694    6697
CTRIA6      3046       1    1538    1514    1513    6700    6672    6699
CTRIA6      3047       1    1514    1539    1515    6701    6702    6676
CTRIA6      3048       1    1514    1538    1539    6700    6703    6701
CTRIA6      3049       1    1540    1515    1539    6704    6702    6705
CTRIA6      3050       1    1542    1517    1541    6706    6707    6708
CTRIA6      3051       1    1542    1518    1517    6686    6645    6706
CTRIA6      3052       1    1540    1516    1515    6709    6670    6704
CTRIA6      3053       1    1516    1541    1517    6710    6707    6642
CTRIA6      3054       1    1516    1540    1541    6709    6711    6710
CTRIA6      3055       1    1511    1536    1512    6712    6695    6667
CTRIA6      3056       1    1535    1510    1534    6713    6714    6715
CTRIA6      3057       1    1511    1535    1536    6716    6717    6712
CTRIA6      3058       1    1511    1510    1535    6663    6713    6716
CTRIA6      3059       1    1534    1509    1533    6718    6719    6720
CTRIA6      3060       1    1534    1510    1509    6714    6622    6718
CTRIA6      3061       1    1531    1506    1530    6721    6722    6723
CTRIA6      3062       1    1507    1531    1532    6724    6725    6726
CTRIA6      3063       1    1507    1506    1531    6632    6721    6724
CTRIA6      3064       1    1508    1533    1509    6727    6719    6630
CTRIA6      3065       1    1532    1508    1507    6728    6626    6726
CTRIA6      3066       1    1532    1533    1508    6729    6727    6728
CTRIA6      3067       1    1505    1530    1506    6730    6722    6638
CTRIA6      3068       1    1529    1505    1504    6731    6634    6732
CTRIA6      3069       1    1529    1530    1505    6733    6730    6731
CTRIA6      3070       1    1528    1503    1527    6734    6735    6736
CTRIA6      3071       1    1504    1528    1529    6737    6738    6732
CTRIA6      3072       1    1504    1503    1528    6613    6734    6737
CTRIA6      3073       1    1523    1161    1162    6739    6740    6741
CTRIA6      3074       1    1500    1524    1525    6742    6743    6744
CTRIA6      3075       1    1500    1499    1524    6611    6745    6742
CTRIA6      3076       1    1523    1499    1161    6746    6605    6739
CTRIA6      3077       1    1523    1524    1499    6747    6745    6746
CTRIA6      3078       1    1502    1527    1503    6748    6735    6620
CTRIA6      3079       1    1525    1501    1500    6749    6607    6744
CTRIA6      3080       1    1525    1526    1501    6750    6751    6749
CTRIA6      3081       1    1502    1526    1527    6752    6753    6748
CTRIA6      3082       1    1502    1501    1526    6616    6751    6752
CTRIA6      3083       1    1548    9246    9247    6754    9256    6755
CTRIA6      3084       1    1162    1548    1523    6756    6757    6741
CTRIA6      3085       1    1162    9246    1548    6758    6754    6756
CTRIA6      3086       1    9003    1573    9004    6759    6760    9031
CTRIA6      3087       1    1546    1572    1547    6761    6762    6684
CTRIA6      3088       1    1546    1571    1572    6763    6764    6761
CTRIA6      3089       1    1547    1573    9003    6765    6759    6678
CTRIA6      3090       1    1547    1572    1573    6762    6766    6765
CTRIA6      3091       1    1569    1543    1568    6767    6768    6769
CTRIA6      3092       1    1571    1545    1570    6770    6771    6772
CTRIA6      3093       1    1571    1546    1545    6763    6682    6770
CTRIA6      3094       1    1569    1544    1543    6773    6693    6767
CTRIA6      3095       1    1544    1570    1545    6774    6771    6690
CTRIA6      3096       1    1544    1569    1570    6773    6775    6774
CTRIA6      3097       1    1542    1568    1543    6776    6768    6687
CTRIA6      3098       1    1567    1541    1566    6777    6778    6779
CTRIA6      3099       1    1542    1567    1568    6780    6781    6776
CTRIA6      3100       1    1542    1541    1567    6708    6777    6780
CTRIA6      3101       1    1566    1540    1565    6782    6783    6784
CTRIA6      3102       1    1566    1541    1540    6778    6711    6782
CTRIA6      3103       1    1563    1537    1562    6785    6786    6787
CTRIA6      3104       1    1538    1563    1564    6788    6789    6790
CTRIA6      3105       1    1538    1537    1563    6698    6785    6788
CTRIA6      3106       1    1539    1565    1540    6791    6783    6705
CTRIA6      3107       1    1564    1539    1538    6792    6703    6790
CTRIA6      3108       1    1564    1565    1539    6793    6791    6792
CTRIA6      3109       1    1536    1562    1537    6794    6786    6696
CTRIA6      3110       1    1561    1535    1560    6795    6796    6797
CTRIA6      3111       1    1536    1561    1562    6798    6799    6794
CTRIA6      3112       1    1536    1535    1561    6717    6795    6798
CTRIA6      3113       1    1560    1534    1559    6800    6801    6802
CTRIA6      3114       1    1560    1535    1534    6796    6715    6800
CTRIA6      3115       1    1557    1531    1556    6803    6804    6805
CTRIA6      3116       1    1532    1557    1558    6806    6807    6808
CTRIA6      3117       1    1532    1531    1557    6725    6803    6806
CTRIA6      3118       1    1533    1559    1534    6809    6801    6720
CTRIA6      3119       1    1558    1533    1532    6810    6729    6808
CTRIA6      3120       1    1558    1559    1533    6811    6809    6810
CTRIA6      3121       1    1530    1556    1531    6812    6804    6723
CTRIA6      3122       1    1555    1530    1529    6813    6733    6814
CTRIA6      3123       1    1555    1556    1530    6815    6812    6813
CTRIA6      3124       1    1554    1528    1553    6816    6817    6818
CTRIA6      3125       1    1529    1554    1555    6819    6820    6814
CTRIA6      3126       1    1529    1528    1554    6738    6816    6819
CTRIA6      3127       1    1549    1523    1548    6821    6757    6822
CTRIA6      3128       1    1525    1550    1551    6823    6824    6825
CTRIA6      3129       1    1525    1524    1550    6743    6826    6823
CTRIA6      3130       1    1549    1524    1523    6827    6747    6821
CTRIA6      3131       1    1549    1550    1524    6828    6826    6827
CTRIA6      3132       1    1527    1553    1528    6829    6817    6736
CTRIA6      3133       1    1551    1526    1525    6830    6750    6825
CTRIA6      3134       1    1551    1552    1526    6831    6832    6830
CTRIA6      3135       1    1527    1552    1553    6833    6834    6829
CTRIA6      3136       1    1527    1526    1552    6753    6832    6833
CTRIA6      3137       1    1574    9247    9248    6835    9257    6836
CTRIA6      3138       1    1548    1574    1549    6837    6838    6822
CTRIA6      3139       1    1548    9247    1574    6755    6835    6837
CTRIA6      3140       1    9004    1599    9005    6839    6840    9032
CTRIA6      3141       1    1598    1572    1597    6841    6842    6843
CTRIA6      3142       1    1573    1599    9004    6844    6839    6760
CTRIA6      3143       1    1598    1573    1572    6845    6766    6841
CTRIA6      3144       1    1598    1599    1573    6846    6844    6845
CTRIA6      3145       1    1593    1567    1592    6847    6848    6849
CTRIA6      3146       1    1569    1594    1595    6850    6851    6852
CTRIA6      3147       1    1569    1568    1594    6769    6853    6850
CTRIA6      3148       1    1593    1568    1567    6854    6781    6847
CTRIA6      3149       1    1593    1594    1568    6855    6853    6854
CTRIA6      3150       1    1571    1597    1572    6856    6842    6764
CTRIA6      3151       1    1595    1570    1569    6857    6775    6852
CTRIA6      3152       1    1595    1596    1570    6858    6859    6857
CTRIA6      3153       1    1571    1596    1597    6860    6861    6856
CTRIA6      3154       1    1571    1570    1596    6772    6859    6860
CTRIA6      3155       1    1592    1566    1591    6862    6863    6864
CTRIA6      3156       1    1592    1567    1566    6848    6779    6862
CTRIA6      3157       1    1591    1565    1590    6865    6866    6867
CTRIA6      3158       1    1591    1566    1565    6863    6784    6865
CTRIA6      3159       1    1590    1564    1589    6868    6869    6870
CTRIA6      3160       1    1590    1565    1564    6866    6793    6868
CTRIA6      3161       1    1589    1563    1588    6871    6872    6873
CTRIA6      3162       1    1589    1564    1563    6869    6789    6871
CTRIA6      3163       1    1588    1562    1587    6874    6875    6876
CTRIA6      3164       1    1588    1563    1562    6872    6787    6874
CTRIA6      3165       1    1587    1561    1586    6877    6878    6879
CTRIA6      3166       1    1587    1562    1561    6875    6799    6877
CTRIA6      3167       1    1586    1560    1585    6880    6881    6882
CTRIA6      3168       1    1586    1561    1560    6878    6797    6880
CTRIA6      3169       1    1585    1559    1584    6883    6884    6885
CTRIA6      3170       1    1585    1560    1559    6881    6802    6883
CTRIA6      3171       1    1584    1558    1583    6886    6887    6888
CTRIA6      3172       1    1584    1559    1558    6884    6811    6886
CTRIA6      3173       1    1583    1557    1582    6889    6890    6891
CTRIA6      3174       1    1583    1558    1557    6887    6807    6889
CTRIA6      3175       1    1582    1556    1581    6892    6893    6894
CTRIA6      3176       1    1582    1557    1556    6890    6805    6892
CTRIA6      3177       1    1549    1575    1550    6895    6896    6828
CTRIA6      3178       1    1549    1574    1575    6838    6897    6895
CTRIA6      3179       1    1581    1555    1580    6898    6899    6900
CTRIA6      3180       1    1581    1556    1555    6893    6815    6898
CTRIA6      3181       1    1550    1576    1551    6901    6902    6824
CTRIA6      3182       1    1550    1575    1576    6896    6903    6901
CTRIA6      3183       1    1580    1554    1579    6904    6905    6906
CTRIA6      3184       1    1580    1555    1554    6899    6820    6904
CTRIA6      3185       1    1551    1577    1552    6907    6908    6831
CTRIA6      3186       1    1551    1576    1577    6902    6909    6907
CTRIA6      3187       1    1579    1553    1578    6910    6911    6912
CTRIA6      3188       1    1579    1554    1553    6905    6818    6910
CTRIA6      3189       1    1578    1552    1577    6913    6908    6914
CTRIA6      3190       1    1578    1553    1552    6911    6834    6913
CTRIA6      3191       1    1609    1603    1604    6915    6916    6917
CTRIA6      3192       1    1603    1608    1602    6918    6919    6920
CTRIA6      3193       1    1608    1609    1607    6921    6922    6923
CTRIA6      3194       1    1608    1603    1609    6918    6915    6921
CTRIA6      3195       1    1584    1606    1610    6924    6925    6926
CTRIA6      3196       1    1584    1583    1606    6888    6927    6924
CTRIA6      3197       1    1610    1607    1609    6928    6922    6929
CTRIA6      3198       1    1610    1606    1607    6925    6930    6928
CTRIA6      3199       1    1586    1605    1587    6931    6932    6879
CTRIA6      3200       1    1605    1611    1604    6933    6934    6935
CTRIA6      3201       1    1611    1586    1585    6936    6882    6937
CTRIA6      3202       1    1611    1605    1586    6933    6931    6936
CTRIA6      3203       1    1609    1611    1610    6938    6939    6929
CTRIA6      3204       1    1609    1604    1611    6917    6934    6938
CTRIA6      3205       1    1610    1585    1584    6940    6885    6926
CTRIA6      3206       1    1610    1611    1585    6939    6937    6940
CTRIA6      3207       1    1583    1612    1606    6941    6942    6927
CTRIA6      3208       1    1583    1582    1612    6891    6943    6941
CTRIA6      3209       1    1606    1613    1607    6944    6945    6930
CTRIA6      3210       1    1606    1612    1613    6942    6946    6944
CTRIA6      3211       1    1607    1614    1608    6947    6948    6923
CTRIA6      3212       1    1607    1613    1614    6945    6949    6947
CTRIA6      3213       1    1602    1615    1601    6950    6951    6952
CTRIA6      3214       1    1615    1608    1614    6953    6948    6954
CTRIA6      3215       1    1615    1602    1608    6950    6919    6953
CTRIA6      3216       1    1582    1616    1612    6955    6956    6943
CTRIA6      3217       1    1582    1581    1616    6894    6957    6955
CTRIA6      3218       1    1612    1617    1613    6958    6959    6946
CTRIA6      3219       1    1612    1616    1617    6956    6960    6958
CTRIA6      3220       1    1613    1618    1614    6961    6962    6949
CTRIA6      3221       1    1613    1617    1618    6959    6963    6961
CTRIA6      3222       1    1614    1619    1615    6964    6965    6954
CTRIA6      3223       1    1614    1618    1619    6962    6966    6964
CTRIA6      3224       1    1601    1620    1600    6967    6968    6969
CTRIA6      3225       1    1620    1615    1619    6970    6965    6971
CTRIA6      3226       1    1620    1601    1615    6967    6951    6970
CTRIA6      3227       1    1622    1623    1621    6972    6973    6974
CTRIA6      3228       1    1223    1622    1222    6975    6976    6977
CTRIA6      3229       1    1623    1223    1224    6978    6979    6980
CTRIA6      3230       1    1623    1622    1223    6972    6975    6978
CTRIA6      3231       1    1621    1618    1617    6981    6963    6982
CTRIA6      3232       1    1624    1621    1623    6983    6973    6984
CTRIA6      3233       1    1624    1618    1621    6985    6981    6983
CTRIA6      3234       1    1625    1224    1225    6986    6987    6988
CTRIA6      3235       1    1623    1625    1624    6989    6990    6984
CTRIA6      3236       1    1623    1224    1625    6980    6986    6989
CTRIA6      3237       1    1624    1619    1618    6991    6966    6985
CTRIA6      3238       1    1624    1625    1619    6990    6992    6991
CTRIA6      3239       1    1626    1600    1620    6993    6968    6994
CTRIA6      3240       1    1226    1626    1225    6995    6996    6997
CTRIA6      3241       1    1226    1600    1626    6998    6993    6995
CTRIA6      3242       1    1625    1620    1619    6999    6971    6992
CTRIA6      3243       1    1626    1625    1225    7000    6988    6996
CTRIA6      3244       1    1626    1620    1625    6994    6999    7000
CTRIA6      3245       1    1581    1627    1616    7001    7002    6957
CTRIA6      3246       1    1581    1580    1627    6900    7003    7001
CTRIA6      3247       1    1617    1628    1621    7004    7005    6982
CTRIA6      3248       1    1628    1616    1627    7006    7002    7007
CTRIA6      3249       1    1628    1617    1616    7004    6960    7006
CTRIA6      3250       1    1629    1580    1579    7008    6906    7009
CTRIA6      3251       1    1621    1630    1622    7010    7011    6974
CTRIA6      3252       1    1629    1627    1580    7012    7003    7008
CTRIA6      3253       1    1630    1631    1629    7013    7014    7015
CTRIA6      3254       1    1631    1627    1629    7016    7012    7014
CTRIA6      3255       1    1631    1628    1627    7017    7007    7016
CTRIA6      3256       1    1628    1630    1621    7018    7010    7005
CTRIA6      3257       1    1628    1631    1630    7017    7013    7018
CTRIA6      3258       1    1222    1632    1221    7019    7020    7021
CTRIA6      3259       1    1632    1622    1630    7022    7011    7023
CTRIA6      3260       1    1632    1222    1622    7019    6976    7022
CTRIA6      3261       1    1630    1634    1632    7024    7025    7023
CTRIA6      3262       1    1630    1629    1634    7015    7026    7024
CTRIA6      3263       1    1633    1579    1578    7027    6912    7028
CTRIA6      3264       1    1629    1633    1634    7029    7030    7026
CTRIA6      3265       1    1629    1579    1633    7009    7027    7029
CTRIA6      3266       1    1635    1634    1633    7031    7030    7032
CTRIA6      3267       1    1221    1636    1220    7033    7034    7035
CTRIA6      3268       1    1636    1632    1634    7036    7025    7037
CTRIA6      3269       1    1636    1221    1632    7033    7020    7036
CTRIA6      3270       1    1220    1635    1219    7038    7039    7040
CTRIA6      3271       1    1635    1636    1634    7041    7037    7031
CTRIA6      3272       1    1635    1220    1636    7038    7034    7041
CTRIA6      3273       1    1637    1578    1577    7042    6914    7043
CTRIA6      3274       1    1633    1637    1635    7044    7045    7032
CTRIA6      3275       1    1633    1578    1637    7028    7042    7044
CTRIA6      3276       1    1638    1635    1637    7046    7045    7047
CTRIA6      3277       1    1219    1638    1218    7048    7049    7050
CTRIA6      3278       1    1219    1635    1638    7039    7046    7048
CTRIA6      3279       1    1637    1639    1638    7051    7052    7047
CTRIA6      3280       1    1639    1577    1576    7053    6909    7054
CTRIA6      3281       1    1639    1637    1577    7051    7043    7053
CTRIA6      3282       1    1574    1640    1575    7055    7056    6897
CTRIA6      3283       1    1640    9248    1214    7057    7058    7059
CTRIA6      3284       1    1640    1574    9248    7055    6836    7057
CTRIA6      3285       1    1576    1641    1639    7060    7061    7054
CTRIA6      3286       1    1641    1575    1640    7062    7056    7063
CTRIA6      3287       1    1641    1576    1575    7060    6903    7062
CTRIA6      3288       1    1217    1643    1642    7064    7065    7066
CTRIA6      3289       1    1643    1218    1638    7067    7049    7068
CTRIA6      3290       1    1643    1217    1218    7064    7069    7067
CTRIA6      3291       1    1639    1643    1638    7070    7068    7052
CTRIA6      3292       1    1642    1639    1641    7071    7061    7072
CTRIA6      3293       1    1642    1643    1639    7065    7070    7071
CTRIA6      3294       1    1642    1216    1217    7073    7074    7066
CTRIA6      3295       1    1644    1640    1214    7075    7059    7076
CTRIA6      3296       1    1640    1644    1641    7075    7077    7063
CTRIA6      3297       1    1214    1215    1644    7078    7079    7076
CTRIA6      3298       1    1216    1644    1215    7080    7079    7081
CTRIA6      3299       1    1644    1642    1641    7082    7072    7077
CTRIA6      3300       1    1644    1216    1642    7080    7073    7082
CTRIA6      3301       1    9117    1645    1231    7083    7084    7085
CTRIA6      3302       1    9117    9116    1645    9188    7086    7083
CTRIA6      3303       1    1231    1646    1230    7087    7088    7089
CTRIA6      3304       1    1231    1645    1646    7084    7090    7087
CTRIA6      3305       1    1647    1230    1646    7091    7088    7092
CTRIA6      3306       1    1647    1229    1230    7093    7094    7091
CTRIA6      3307       1    1648    1229    1647    7095    7093    7096
CTRIA6      3308       1    1648    1228    1229    7097    7098    7095
CTRIA6      3309       1    1649    1228    1648    7099    7097    7100
CTRIA6      3310       1    1649    1227    1228    7101    7102    7099
CTRIA6      3311       1    1227    1600    1226    7103    6998    7104
CTRIA6      3312       1    1227    1649    1600    7101    7105    7103
CTRIA6      3313       1    1650    9116    9115    7106    9189    7107
CTRIA6      3314       1    1650    1645    9116    7108    7086    7106
CTRIA6      3315       1    1651    1645    1650    7109    7108    7110
CTRIA6      3316       1    1651    1646    1645    7111    7090    7109
CTRIA6      3317       1    1652    1646    1651    7112    7111    7113
CTRIA6      3318       1    1652    1647    1646    7114    7092    7112
CTRIA6      3319       1    1653    1647    1652    7115    7114    7116
CTRIA6      3320       1    1653    1648    1647    7117    7096    7115
CTRIA6      3321       1    1653    1654    1648    7118    7119    7117
CTRIA6      3322       1    1601    1649    1655    7120    7121    7122
CTRIA6      3323       1    1601    1600    1649    6969    7105    7120
CTRIA6      3324       1    1654    1649    1648    7123    7100    7119
CTRIA6      3325       1    1654    1655    1649    7124    7121    7123
CTRIA6      3326       1    1587    1659    1588    7125    7126    6876
CTRIA6      3327       1    1587    1605    1659    6932    7127    7125
CTRIA6      3328       1    1605    1658    1659    7128    7129    7127
CTRIA6      3329       1    1604    1658    1605    7130    7128    6935
CTRIA6      3330       1    1604    1657    1658    7131    7132    7130
CTRIA6      3331       1    1603    1657    1604    7133    7131    6916
CTRIA6      3332       1    1603    1656    1657    7134    7135    7133
CTRIA6      3333       1    1602    1656    1603    7136    7134    6920
CTRIA6      3334       1    1655    1602    1601    7137    6952    7122
CTRIA6      3335       1    1655    1656    1602    7138    7136    7137
CTRIA6      3336       1    1588    1664    1589    7139    7140    6873
CTRIA6      3337       1    1659    1664    1588    7141    7139    7126
CTRIA6      3338       1    1659    1663    1664    7142    7143    7141
CTRIA6      3339       1    1658    1663    1659    7144    7142    7129
CTRIA6      3340       1    1658    1662    1663    7145    7146    7144
CTRIA6      3341       1    1657    1662    1658    7147    7145    7132
CTRIA6      3342       1    1657    1661    1662    7148    7149    7147
CTRIA6      3343       1    1654    1656    1655    7150    7138    7124
CTRIA6      3344       1    1654    1660    1656    7151    7152    7150
CTRIA6      3345       1    1656    1661    1657    7153    7148    7135
CTRIA6      3346       1    1656    1660    1661    7152    7154    7153
CTRIA6      3347       1    9110    1668    9111    7155    7156    9190
CTRIA6      3348       1    1671    9110    9109    7157    9191    7158
CTRIA6      3349       1    1668    1671    1667    7159    7160    7161
CTRIA6      3350       1    1668    9110    1671    7155    7157    7159
CTRIA6      3351       1    1667    1670    1666    7162    7163    7164
CTRIA6      3352       1    1667    1671    1670    7160    7165    7162
CTRIA6      3353       1    1669    9109    9108    7166    9192    7167
CTRIA6      3354       1    1671    1669    1670    7168    7169    7165
CTRIA6      3355       1    1671    9109    1669    7158    7166    7168
CTRIA6      3356       1    1666    1675    1665    7170    7171    7172
CTRIA6      3357       1    1672    9108    9107    7173    9193    7174
CTRIA6      3358       1    1670    1675    1666    7175    7170    7163
CTRIA6      3359       1    1673    1669    9108    7176    7167    7177
CTRIA6      3360       1    1670    1674    1675    7178    7179    7175
CTRIA6      3361       1    1673    9108    1672    7177    7173    7180
CTRIA6      3362       1    1669    1674    1670    7181    7178    7169
CTRIA6      3363       1    1669    1673    1674    7176    7182    7181
CTRIA6      3364       1    1677    1678    1676    7183    7184    7185
CTRIA6      3365       1    1678    1596    1595    7186    6858    7187
CTRIA6      3366       1    1596    1677    1597    7188    7189    6861
CTRIA6      3367       1    1596    1678    1677    7186    7183    7188
CTRIA6      3368       1    1676    1674    1673    7190    7182    7191
CTRIA6      3369       1    1676    1678    1674    7184    7192    7190
CTRIA6      3370       1    1679    1665    1675    7193    7171    7194
CTRIA6      3371       1    1593    1679    1594    7195    7196    6855
CTRIA6      3372       1    1593    1665    1679    7197    7193    7195
CTRIA6      3373       1    1595    1680    1678    7198    7199    7187
CTRIA6      3374       1    1680    1594    1679    7200    7196    7201
CTRIA6      3375       1    1680    1595    1594    7198    6851    7200
CTRIA6      3376       1    1675    1680    1679    7202    7201    7194
CTRIA6      3377       1    1680    1674    1678    7203    7192    7199
CTRIA6      3378       1    1680    1675    1674    7202    7179    7203
CTRIA6      3379       1    1681    9107    9106    7204    9194    7205
CTRIA6      3380       1    1681    1672    9107    7206    7174    7204
CTRIA6      3381       1    1672    1676    1673    7207    7191    7180
CTRIA6      3382       1    1672    1681    1676    7206    7208    7207
CTRIA6      3383       1    1682    9106    9105    7209    9195    7210
CTRIA6      3384       1    1682    1681    9106    7211    7205    7209
CTRIA6      3385       1    1683    1681    1682    7212    7211    7213
CTRIA6      3386       1    1681    1677    1676    7214    7185    7208
CTRIA6      3387       1    1681    1683    1677    7212    7215    7214
CTRIA6      3388       1    1597    1683    1598    7216    7217    6843
CTRIA6      3389       1    1597    1677    1683    7189    7215    7216
CTRIA6      3390       1    1598    1684    1599    7218    7219    6846
CTRIA6      3391       1    1684    1683    1682    7220    7213    7221
CTRIA6      3392       1    1684    1598    1683    7218    7217    7220
CTRIA6      3393       1    9105    1684    1682    7222    7221    7210
CTRIA6      3394       1    9105    9104    1684    9196    7223    7222
CTRIA6      3395       1    9005    9104    9337    7224    9197    9033
CTRIA6      3396       1    9104    1599    1684    7225    7219    7223
CTRIA6      3397       1    9104    9005    1599    7224    6840    7225
CTRIA6      3398       1    1650    1689    1651    7226    7227    7110
CTRIA6      3399       1    1690    1650    9115    7228    7107    7229
CTRIA6      3400       1    1689    1690    1688    7230    7231    7232
CTRIA6      3401       1    1689    1650    1690    7226    7228    7230
CTRIA6      3402       1    1688    1691    1687    7233    7234    7235
CTRIA6      3403       1    1690    1691    1688    7236    7233    7231
CTRIA6      3404       1    9114    1690    9115    7237    7229    9198
CTRIA6      3405       1    9114    1691    1690    7238    7236    7237
CTRIA6      3406       1    1692    9113    9112    7239    9199    7240
CTRIA6      3407       1    9113    1691    9114    7241    7238    9200
CTRIA6      3408       1    1691    1692    1687    7242    7243    7234
CTRIA6      3409       1    1691    9113    1692    7241    7239    7242
CTRIA6      3410       1    9112    1693    1692    7244    7245    7240
CTRIA6      3411       1    1693    9111    1668    7246    7156    7247
CTRIA6      3412       1    1693    9112    9111    7244    9201    7246
CTRIA6      3413       1    1692    1686    1687    7248    7249    7243
CTRIA6      3414       1    1692    1693    1686    7245    7250    7248
CTRIA6      3415       1    1685    1668    1667    7251    7161    7252
CTRIA6      3416       1    1693    1685    1686    7253    7254    7250
CTRIA6      3417       1    1693    1668    1685    7247    7251    7253
CTRIA6      3418       1    1651    1699    1652    7255    7256    7113
CTRIA6      3419       1    1698    1689    1688    7257    7232    7258
CTRIA6      3420       1    1689    1699    1651    7259    7255    7227
CTRIA6      3421       1    1689    1698    1699    7257    7260    7259
CTRIA6      3422       1    1688    1697    1698    7261    7262    7258
CTRIA6      3423       1    1688    1687    1697    7235    7263    7261
CTRIA6      3424       1    1687    1696    1697    7264    7265    7263
CTRIA6      3425       1    1687    1686    1696    7249    7266    7264
CTRIA6      3426       1    1686    1695    1696    7267    7268    7266
CTRIA6      3427       1    1686    1685    1695    7254    7269    7267
CTRIA6      3428       1    1694    1667    1666    7270    7164    7271
CTRIA6      3429       1    1685    1694    1695    7272    7273    7269
CTRIA6      3430       1    1685    1667    1694    7252    7270    7272
CTRIA6      3431       1    1652    1706    1653    7274    7275    7116
CTRIA6      3432       1    1698    1705    1699    7276    7277    7260
CTRIA6      3433       1    1698    1704    1705    7278    7279    7276
CTRIA6      3434       1    1699    1706    1652    7280    7274    7256
CTRIA6      3435       1    1699    1705    1706    7277    7281    7280
CTRIA6      3436       1    1697    1704    1698    7282    7278    7262
CTRIA6      3437       1    1703    1697    1696    7283    7265    7284
CTRIA6      3438       1    1703    1704    1697    7285    7282    7283
CTRIA6      3439       1    1696    1702    1703    7286    7287    7284
CTRIA6      3440       1    1696    1695    1702    7268    7288    7286
CTRIA6      3441       1    1695    1701    1702    7289    7290    7288
CTRIA6      3442       1    1695    1694    1701    7273    7291    7289
CTRIA6      3443       1    1700    1666    1665    7292    7172    7293
CTRIA6      3444       1    1694    1700    1701    7294    7295    7291
CTRIA6      3445       1    1694    1666    1700    7271    7292    7294
CTRIA6      3446       1    1701    1708    1702    7296    7297    7290
CTRIA6      3447       1    1709    1701    1700    7298    7295    7299
CTRIA6      3448       1    1708    1709    1707    7300    7301    7302
CTRIA6      3449       1    1708    1701    1709    7296    7298    7300
CTRIA6      3450       1    1707    1591    1590    7303    6867    7304
CTRIA6      3451       1    1707    1709    1591    7301    7305    7303
CTRIA6      3452       1    1665    1710    1700    7306    7307    7293
CTRIA6      3453       1    1710    1593    1592    7308    6849    7309
CTRIA6      3454       1    1710    1665    1593    7306    7197    7308
CTRIA6      3455       1    1710    1709    1700    7310    7299    7307
CTRIA6      3456       1    1709    1592    1591    7311    6864    7305
CTRIA6      3457       1    1709    1710    1592    7310    7309    7311
CTRIA6      3458       1    1711    1664    1663    7312    7143    7313
CTRIA6      3459       1    1707    1712    1708    7314    7315    7302
CTRIA6      3460       1    1664    1713    1589    7316    7317    7140
CTRIA6      3461       1    1713    1711    1712    7318    7319    7320
CTRIA6      3462       1    1713    1664    1711    7316    7312    7318
CTRIA6      3463       1    1707    1713    1712    7321    7320    7314
CTRIA6      3464       1    1713    1590    1589    7322    6870    7317
CTRIA6      3465       1    1713    1707    1590    7321    7304    7322
CTRIA6      3466       1    1703    1714    1704    7323    7324    7285
CTRIA6      3467       1    1715    1708    1712    7325    7315    7326
CTRIA6      3468       1    1702    1715    1703    7327    7328    7287
CTRIA6      3469       1    1702    1708    1715    7297    7325    7327
CTRIA6      3470       1    1714    1712    1711    7329    7319    7330
CTRIA6      3471       1    1715    1714    1703    7331    7323    7328
CTRIA6      3472       1    1715    1712    1714    7326    7329    7331
CTRIA6      3473       1    1716    1663    1662    7332    7146    7333
CTRIA6      3474       1    1711    1716    1714    7334    7335    7330
CTRIA6      3475       1    1711    1663    1716    7313    7332    7334
CTRIA6      3476       1    1704    1717    1705    7336    7337    7279
CTRIA6      3477       1    1717    1714    1716    7338    7335    7339
CTRIA6      3478       1    1717    1704    1714    7336    7324    7338
CTRIA6      3479       1    1716    1718    1717    7340    7341    7339
CTRIA6      3480       1    1718    1662    1661    7342    7149    7343
CTRIA6      3481       1    1718    1716    1662    7340    7333    7342
CTRIA6      3482       1    1660    1719    1661    7344    7345    7154
CTRIA6      3483       1    1653    1660    1654    7346    7151    7118
CTRIA6      3484       1    1660    1653    1706    7346    7275    7347
CTRIA6      3485       1    1719    1660    1706    7344    7347    7348
CTRIA6      3486       1    1719    1718    1661    7349    7343    7345
CTRIA6      3487       1    1705    1719    1706    7350    7348    7281
CTRIA6      3488       1    1719    1705    1717    7350    7337    7351
CTRIA6      3489       1    1718    1719    1717    7349    7351    7341
CTRIA6      3490       1    1721    1181    1180    7352    5755    7353
CTRIA6      3491       1    1214    9249    1721    7354    7355    7356
CTRIA6      3492       1    1214    9248    9249    7058    9258    7354
CTRIA6      3493       1    1721    9250    1181    7357    5753    7352
CTRIA6      3494       1    1721    9249    9250    7355    9259    7357
CTRIA6      3495       1    1720    1179    1178    7358    5633    7359
CTRIA6      3496       1    1215    1179    1720    7360    7358    7361
CTRIA6      3497       1    1215    1214    1721    7078    7356    7362
CTRIA6      3498       1    1179    1721    1180    7363    7353    5602
CTRIA6      3499       1    1179    1215    1721    7360    7362    7363
CTRIA6      3500       1    1231    9118    9117    7364    9202    7085
CTRIA6      3501       1    1231    1163    9118    7365    5599    7364
CTRIA6      3502       1    1231    1230    1163    7089    7366    7365
CTRIA6      3503       1    1217    1722    1177    7367    7368    7369
CTRIA6      3504       1    1217    1216    1722    7074    7370    7367
CTRIA6      3505       1    1178    1722    1720    7371    7372    7359
CTRIA6      3506       1    1178    1177    1722    5627    7368    7371
CTRIA6      3507       1    1720    1216    1215    7373    7081    7361
CTRIA6      3508       1    1720    1722    1216    7372    7370    7373
CTRIA6      3509       1    1230    1164    1163    7374    5658    7366
CTRIA6      3510       1    1230    1229    1164    7094    7375    7374
CTRIA6      3511       1    1229    1165    1164    7376    5667    7375
CTRIA6      3512       1    1229    1228    1165    7098    7377    7376
CTRIA6      3513       1    1228    1166    1165    7378    5692    7377
CTRIA6      3514       1    1228    1227    1166    7102    7379    7378
CTRIA6      3515       1    1227    1167    1166    7380    5712    7379
CTRIA6      3516       1    1227    1226    1167    7104    7381    7380
CTRIA6      3517       1    1217    1176    1218    7382    7383    7069
CTRIA6      3518       1    1217    1177    1176    7369    5676    7382
CTRIA6      3519       1    1226    1168    1167    7384    5739    7381
CTRIA6      3520       1    1226    1225    1168    6997    7385    7384
CTRIA6      3521       1    1225    1169    1168    7386    5742    7385
CTRIA6      3522       1    1225    1224    1169    6987    7387    7386
CTRIA6      3523       1    1224    1170    1169    7388    5751    7387
CTRIA6      3524       1    1224    1223    1170    6979    7389    7388
CTRIA6      3525       1    1223    1171    1170    7390    5749    7389
CTRIA6      3526       1    1223    1222    1171    6977    7391    7390
CTRIA6      3527       1    1222    1172    1171    7392    5746    7391
CTRIA6      3528       1    1222    1221    1172    7021    7393    7392
CTRIA6      3529       1    1221    1173    1172    7394    5706    7393
CTRIA6      3530       1    1221    1220    1173    7035    7395    7394
CTRIA6      3531       1    1220    1174    1173    7396    5697    7395
CTRIA6      3532       1    1220    1219    1174    7040    7397    7396
CTRIA6      3533       1    1175    1218    1176    7398    7383    5682
CTRIA6      3534       1    1219    1175    1174    7399    5686    7397
CTRIA6      3535       1    1219    1218    1175    7050    7398    7399
CTRIA6      3536       1    1723    1161    1160    7400    6604    7401
CTRIA6      3537       1    1161    1727    1162    7402    7403    6740
CTRIA6      3538       1    1727    1723    1724    7404    7405    7406
CTRIA6      3539       1    1727    1161    1723    7402    7400    7404
CTRIA6      3540       1    1162    9245    9246    7407    9260    6758
CTRIA6      3541       1    1162    1727    9245    7403    7408    7407
CTRIA6      3542       1    1727    9244    9245    7409    9261    7408
CTRIA6      3543       1    1726    1727    1724    7410    7406    7411
CTRIA6      3544       1    1726    9244    1727    7412    7409    7410
CTRIA6      3545       1    9243    1725    9242    7413    7414    9262
CTRIA6      3546       1    1726    9243    9244    7415    9263    7412
CTRIA6      3547       1    1725    1726    1724    7416    7411    7417
CTRIA6      3548       1    1725    9243    1726    7413    7415    7416
CTRIA6      3549       1    1733    8976    8975    7418    9034    7419
CTRIA6      3550       1    8976    1756    8977    7420    7421    9035
CTRIA6      3551       1    1756    1733    1734    7422    7423    7424
CTRIA6      3552       1    1756    8976    1733    7420    7418    7422
CTRIA6      3553       1    1757    8977    1756    7425    7421    7426
CTRIA6      3554       1    8978    1757    1138    7427    7428    5758
CTRIA6      3555       1    8978    8977    1757    9036    7425    7427
CTRIA6      3556       1    1756    1758    1757    7429    7430    7426
CTRIA6      3557       1    1758    1734    1735    7431    7432    7433
CTRIA6      3558       1    1758    1756    1734    7429    7424    7431
CTRIA6      3559       1    1759    1757    1758    7434    7430    7435
CTRIA6      3560       1    1138    1759    1139    7436    7437    5781
CTRIA6      3561       1    1138    1757    1759    7428    7434    7436
CTRIA6      3562       1    1758    1760    1759    7438    7439    7435
CTRIA6      3563       1    1760    1735    1736    7440    7441    7442
CTRIA6      3564       1    1760    1758    1735    7438    7433    7440
CTRIA6      3565       1    1753    1157    1156    7443    6152    7444
CTRIA6      3566       1    1753    1754    1157    7445    7446    7443
CTRIA6      3567       1    1159    1755    1732    7447    7448    7449
CTRIA6      3568       1    1158    1755    1159    7450    7447    6487
CTRIA6      3569       1    1754    1158    1157    7451    6148    7446
CTRIA6      3570       1    1754    1755    1158    7452    7450    7451
CTRIA6      3571       1    1761    1759    1760    7453    7439    7454
CTRIA6      3572       1    1139    1761    1140    7455    7456    5773
CTRIA6      3573       1    1139    1759    1761    7437    7453    7455
CTRIA6      3574       1    1760    1762    1761    7457    7458    7454
CTRIA6      3575       1    1762    1736    1737    7459    7460    7461
CTRIA6      3576       1    1762    1760    1736    7457    7442    7459
CTRIA6      3577       1    1156    1752    1753    7462    7463    7444
CTRIA6      3578       1    1156    1155    1752    6157    7464    7462
CTRIA6      3579       1    1763    1761    1762    7465    7458    7466
CTRIA6      3580       1    1140    1763    1141    7467    7468    5769
CTRIA6      3581       1    1140    1761    1763    7456    7465    7467
CTRIA6      3582       1    1155    1751    1752    7469    7470    7464
CTRIA6      3583       1    1751    1155    1764    7469    7471    7472
CTRIA6      3584       1    1155    1154    1764    6144    7473    7471
CTRIA6      3585       1    1762    1765    1763    7474    7475    7466
CTRIA6      3586       1    1765    1737    1738    7476    7477    7478
CTRIA6      3587       1    1765    1762    1737    7474    7461    7476
CTRIA6      3588       1    1766    1763    1765    7479    7475    7480
CTRIA6      3589       1    1141    1766    1142    7481    7482    5802
CTRIA6      3590       1    1141    1763    1766    7468    7479    7481
CTRIA6      3591       1    1750    1764    1767    7483    7484    7485
CTRIA6      3592       1    1750    1751    1764    7486    7472    7483
CTRIA6      3593       1    1767    1154    1153    7487    6137    7488
CTRIA6      3594       1    1767    1764    1154    7484    7473    7487
CTRIA6      3595       1    1765    1768    1766    7489    7490    7480
CTRIA6      3596       1    1768    1738    1739    7491    7492    7493
CTRIA6      3597       1    1768    1765    1738    7489    7478    7491
CTRIA6      3598       1    1769    1766    1768    7494    7490    7495
CTRIA6      3599       1    1142    1769    1143    7496    7497    5800
CTRIA6      3600       1    1142    1766    1769    7482    7494    7496
CTRIA6      3601       1    1749    1767    1770    7498    7499    7500
CTRIA6      3602       1    1749    1750    1767    7501    7485    7498
CTRIA6      3603       1    1770    1153    1152    7502    6131    7503
CTRIA6      3604       1    1770    1767    1153    7499    7488    7502
CTRIA6      3605       1    1748    1770    1771    7504    7505    7506
CTRIA6      3606       1    1748    1749    1770    7507    7500    7504
CTRIA6      3607       1    1771    1152    1151    7508    6057    7509
CTRIA6      3608       1    1771    1770    1152    7505    7503    7508
CTRIA6      3609       1    1768    1772    1769    7510    7511    7495
CTRIA6      3610       1    1772    1739    1740    7512    7513    7514
CTRIA6      3611       1    1772    1768    1739    7510    7493    7512
CTRIA6      3612       1    1773    1769    1772    7515    7511    7516
CTRIA6      3613       1    1143    1773    1144    7517    7518    5795
CTRIA6      3614       1    1143    1769    1773    7497    7515    7517
CTRIA6      3615       1    1747    1771    1774    7519    7520    7521
CTRIA6      3616       1    1747    1748    1771    7522    7506    7519
CTRIA6      3617       1    1774    1151    1150    7523    6064    7524
CTRIA6      3618       1    1774    1771    1151    7520    7509    7523
CTRIA6      3619       1    1776    1145    1777    7525    7526    7527
CTRIA6      3620       1    1776    1146    1145    7528    5881    7525
CTRIA6      3621       1    1777    1144    1773    7529    7518    7530
CTRIA6      3622       1    1777    1145    1144    7526    5847    7529
CTRIA6      3623       1    1778    1772    1740    7531    7514    7532
CTRIA6      3624       1    1773    1778    1777    7533    7534    7530
CTRIA6      3625       1    1773    1772    1778    7516    7531    7533
CTRIA6      3626       1    1777    1775    1776    7535    7536    7527
CTRIA6      3627       1    1777    1778    1775    7534    7537    7535
CTRIA6      3628       1    1741    1778    1740    7538    7532    7539
CTRIA6      3629       1    1741    1775    1778    7540    7537    7538
CTRIA6      3630       1    1779    1150    1149    7541    6069    7542
CTRIA6      3631       1    1774    1746    1747    7543    7544    7521
CTRIA6      3632       1    1779    1774    1150    7545    7524    7541
CTRIA6      3633       1    1779    1746    1774    7546    7543    7545
CTRIA6      3634       1    1147    1780    1781    7547    7548    7549
CTRIA6      3635       1    1780    1146    1776    7550    7528    7551
CTRIA6      3636       1    1780    1147    1146    7547    5883    7550
CTRIA6      3637       1    1149    1782    1779    7552    7553    7542
CTRIA6      3638       1    1149    1148    1782    6028    7554    7552
CTRIA6      3639       1    1781    1148    1147    7555    5876    7549
CTRIA6      3640       1    1781    1782    1148    7556    7554    7555
CTRIA6      3641       1    1776    1783    1780    7557    7558    7551
CTRIA6      3642       1    1776    1775    1783    7536    7559    7557
CTRIA6      3643       1    1742    1775    1741    7560    7540    7561
CTRIA6      3644       1    1742    1783    1775    7562    7559    7560
CTRIA6      3645       1    1780    1784    1781    7563    7564    7548
CTRIA6      3646       1    1780    1783    1784    7558    7565    7563
CTRIA6      3647       1    1743    1783    1742    7566    7562    7567
CTRIA6      3648       1    1743    1784    1783    7568    7565    7566
CTRIA6      3649       1    1779    1745    1746    7569    7570    7546
CTRIA6      3650       1    1745    1782    1744    7571    7572    7573
CTRIA6      3651       1    1745    1779    1782    7569    7553    7571
CTRIA6      3652       1    1781    1744    1782    7574    7572    7556
CTRIA6      3653       1    1744    1784    1743    7575    7568    7576
CTRIA6      3654       1    1744    1781    1784    7574    7564    7575
CTRIA6      3655       1    1785    8975    8974    7577    9037    7578
CTRIA6      3656       1    1785    1733    8975    7579    7419    7577
CTRIA6      3657       1    1785    1786    1733    7580    7581    7579
CTRIA6      3658       1    1786    1734    1733    7582    7423    7581
CTRIA6      3659       1    1786    1787    1734    7583    7584    7582
CTRIA6      3660       1    1787    1735    1734    7585    7432    7584
CTRIA6      3661       1    1787    1788    1735    7586    7587    7585
CTRIA6      3662       1    1732    1809    1731    7588    7589    7590
CTRIA6      3663       1    1788    1736    1735    7591    7441    7587
CTRIA6      3664       1    1788    1789    1736    7592    7593    7591
CTRIA6      3665       1    1789    1737    1736    7594    7460    7593
CTRIA6      3666       1    1789    1790    1737    7595    7596    7594
CTRIA6      3667       1    1790    1738    1737    7597    7477    7596
CTRIA6      3668       1    1790    1791    1738    7598    7599    7597
CTRIA6      3669       1    1791    1739    1738    7600    7492    7599
CTRIA6      3670       1    1791    1792    1739    7601    7602    7600
CTRIA6      3671       1    1792    1740    1739    7603    7513    7602
CTRIA6      3672       1    1792    1793    1740    7604    7605    7603
CTRIA6      3673       1    1755    1809    1732    7606    7588    7448
CTRIA6      3674       1    1755    1808    1809    7607    7608    7606
CTRIA6      3675       1    1793    1741    1740    7609    7539    7605
CTRIA6      3676       1    1793    1794    1741    7610    7611    7609
CTRIA6      3677       1    1794    1742    1741    7612    7561    7611
CTRIA6      3678       1    1794    1795    1742    7613    7614    7612
CTRIA6      3679       1    1808    1754    1807    7615    7616    7617
CTRIA6      3680       1    1808    1755    1754    7607    7452    7615
CTRIA6      3681       1    1795    1743    1742    7618    7567    7614
CTRIA6      3682       1    1795    1796    1743    7619    7620    7618
CTRIA6      3683       1    1807    1753    1806    7621    7622    7623
CTRIA6      3684       1    1807    1754    1753    7616    7445    7621
CTRIA6      3685       1    1796    1744    1743    7624    7576    7620
CTRIA6      3686       1    1796    1797    1744    7625    7626    7624
CTRIA6      3687       1    1806    1752    1805    7627    7628    7629
CTRIA6      3688       1    1806    1753    1752    7622    7463    7627
CTRIA6      3689       1    1797    1745    1744    7630    7573    7626
CTRIA6      3690       1    1797    1798    1745    7631    7632    7630
CTRIA6      3691       1    1805    1751    1804    7633    7634    7635
CTRIA6      3692       1    1805    1752    1751    7628    7470    7633
CTRIA6      3693       1    1798    1746    1745    7636    7570    7632
CTRIA6      3694       1    1798    1799    1746    7637    7638    7636
CTRIA6      3695       1    1804    1750    1803    7639    7640    7641
CTRIA6      3696       1    1804    1751    1750    7634    7486    7639
CTRIA6      3697       1    1799    1747    1746    7642    7544    7638
CTRIA6      3698       1    1799    1800    1747    7643    7644    7642
CTRIA6      3699       1    1803    1749    1802    7645    7646    7647
CTRIA6      3700       1    1803    1750    1749    7640    7501    7645
CTRIA6      3701       1    1800    1748    1747    7648    7522    7644
CTRIA6      3702       1    1800    1801    1748    7649    7650    7648
CTRIA6      3703       1    1748    1802    1749    7651    7646    7507
CTRIA6      3704       1    1748    1801    1802    7650    7652    7651
CTRIA6      3705       1    9238    1810    9237    7653    7654    9264
CTRIA6      3706       1    9238    9239    1810    9265    7655    7653
CTRIA6      3707       1    1137    1811    1136    7656    7657    7658
CTRIA6      3708       1    1137    1810    1811    7659    7660    7656
CTRIA6      3709       1    8909    1829    8910    7661    7662    8942
CTRIA6      3710       1    1829    1119    1828    7663    7664    7665
CTRIA6      3711       1    1829    8909    1119    7661    7666    7663
CTRIA6      3712       1    1828    1120    1827    7667    7668    7669
CTRIA6      3713       1    1828    1119    1120    7664    7670    7667
CTRIA6      3714       1    1827    1121    1826    7671    7672    7673
CTRIA6      3715       1    1827    1120    1121    7668    7674    7671
CTRIA6      3716       1    1826    1122    1825    7675    7676    7677
CTRIA6      3717       1    1826    1121    1122    7672    7678    7675
CTRIA6      3718       1    1825    1123    1824    7679    7680    7681
CTRIA6      3719       1    1825    1122    1123    7676    7682    7679
CTRIA6      3720       1    1136    1812    1135    7683    7684    7685
CTRIA6      3721       1    1136    1811    1812    7657    7686    7683
CTRIA6      3722       1    1824    1124    1823    7687    7688    7689
CTRIA6      3723       1    1824    1123    1124    7680    7690    7687
CTRIA6      3724       1    1823    1125    1822    7691    7692    7693
CTRIA6      3725       1    1823    1124    1125    7688    7694    7691
CTRIA6      3726       1    1822    1126    1821    7695    7696    7697
CTRIA6      3727       1    1822    1125    1126    7692    7698    7695
CTRIA6      3728       1    1135    1813    1134    7699    7700    7701
CTRIA6      3729       1    1135    1812    1813    7684    7702    7699
CTRIA6      3730       1    1821    1127    1820    7703    7704    7705
CTRIA6      3731       1    1821    1126    1127    7696    7706    7703
CTRIA6      3732       1    1131    1815    1816    7707    7708    7709
CTRIA6      3733       1    1131    1132    1815    7710    7711    7707
CTRIA6      3734       1    1134    1814    1133    7712    7713    7714
CTRIA6      3735       1    1134    1813    1814    7700    7715    7712
CTRIA6      3736       1    1132    1814    1815    7716    7717    7711
CTRIA6      3737       1    1132    1133    1814    7718    7713    7716
CTRIA6      3738       1    1820    1128    1819    7719    7720    7721
CTRIA6      3739       1    1820    1127    1128    7704    7722    7719
CTRIA6      3740       1    1816    1130    1131    7723    7724    7709
CTRIA6      3741       1    1816    1817    1130    7725    7726    7723
CTRIA6      3742       1    1819    1129    1818    7727    7728    7729
CTRIA6      3743       1    1819    1128    1129    7720    7730    7727
CTRIA6      3744       1    1817    1129    1130    7731    7732    7726
CTRIA6      3745       1    1817    1818    1129    7733    7728    7731
CTRIA6      3746       1    1830    1801    1800    7734    7649    7735
CTRIA6      3747       1    1801    1844    1802    7736    7737    7652
CTRIA6      3748       1    1844    1830    1831    7738    7739    7740
CTRIA6      3749       1    1844    1801    1830    7736    7734    7738
CTRIA6      3750       1    1802    1845    1803    7741    7742    7647
CTRIA6      3751       1    1802    1844    1845    7737    7743    7741
CTRIA6      3752       1    1835    1844    1831    7744    7740    7745
CTRIA6      3753       1    1835    1845    1844    7746    7743    7744
CTRIA6      3754       1    1803    1846    1804    7747    7748    7641
CTRIA6      3755       1    1803    1845    1846    7742    7749    7747
CTRIA6      3756       1    1836    1845    1835    7750    7746    7751
CTRIA6      3757       1    1836    1846    1845    7752    7749    7750
CTRIA6      3758       1    1804    1847    1805    7753    7754    7635
CTRIA6      3759       1    1804    1846    1847    7748    7755    7753
CTRIA6      3760       1    1837    1846    1836    7756    7752    7757
CTRIA6      3761       1    1837    1847    1846    7758    7755    7756
CTRIA6      3762       1    1730    1843    1729    7759    7760    7761
CTRIA6      3763       1    1843    1848    1842    7762    7763    7764
CTRIA6      3764       1    1848    1730    1731    7765    7766    7767
CTRIA6      3765       1    1848    1843    1730    7762    7759    7765
CTRIA6      3766       1    1805    1849    1806    7768    7769    7629
CTRIA6      3767       1    1805    1847    1849    7754    7770    7768
CTRIA6      3768       1    1838    1847    1837    7771    7758    7772
CTRIA6      3769       1    1838    1849    1847    7773    7770    7771
CTRIA6      3770       1    1806    1850    1807    7774    7775    7623
CTRIA6      3771       1    1806    1849    1850    7769    7776    7774
CTRIA6      3772       1    1839    1849    1838    7777    7773    7778
CTRIA6      3773       1    1839    1850    1849    7779    7776    7777
CTRIA6      3774       1    1840    1850    1839    7780    7779    7781
CTRIA6      3775       1    1807    1840    1808    7782    7783    7617
CTRIA6      3776       1    1807    1850    1840    7775    7780    7782
CTRIA6      3777       1    1808    1841    1809    7784    7785    7608
CTRIA6      3778       1    1808    1840    1841    7783    7786    7784
CTRIA6      3779       1    1809    1848    1731    7787    7767    7589
CTRIA6      3780       1    1848    1841    1842    7788    7789    7763
CTRIA6      3781       1    1848    1809    1841    7787    7785    7788
CTRIA6      3782       1    1832    1835    1831    7790    7745    7791
CTRIA6      3783       1    1851    1832    1833    7792    7793    7794
CTRIA6      3784       1    1835    1851    1836    7795    7796    7751
CTRIA6      3785       1    1835    1832    1851    7790    7792    7795
CTRIA6      3786       1    1852    1833    1834    7797    7798    7799
CTRIA6      3787       1    1836    1853    1837    7800    7801    7757
CTRIA6      3788       1    1836    1851    1853    7796    7802    7800
CTRIA6      3789       1    1852    1851    1833    7803    7794    7797
CTRIA6      3790       1    1852    1853    1851    7804    7802    7803
CTRIA6      3791       1    1834    1854    1852    7805    7806    7799
CTRIA6      3792       1    1854    1821    1820    7807    7705    7808
CTRIA6      3793       1    1854    1834    1821    7805    7809    7807
CTRIA6      3794       1    1852    1855    1853    7810    7811    7804
CTRIA6      3795       1    1852    1854    1855    7806    7812    7810
CTRIA6      3796       1    1837    1856    1838    7813    7814    7772
CTRIA6      3797       1    1856    1853    1855    7815    7811    7816
CTRIA6      3798       1    1856    1837    1853    7813    7801    7815
CTRIA6      3799       1    1842    1859    1843    7817    7818    7764
CTRIA6      3800       1    1857    1842    1841    7819    7789    7820
CTRIA6      3801       1    1859    1857    1858    7821    7822    7823
CTRIA6      3802       1    1859    1842    1857    7817    7819    7821
CTRIA6      3803       1    1860    1843    1859    7824    7818    7825
CTRIA6      3804       1    1729    1860    1728    7826    7827    7828
CTRIA6      3805       1    1729    1843    1860    7760    7824    7826
CTRIA6      3806       1    1859    1861    1860    7829    7830    7825
CTRIA6      3807       1    1862    1859    1858    7831    7823    7832
CTRIA6      3808       1    1862    1861    1859    7833    7829    7831
CTRIA6      3809       1    1813    1862    1858    7834    7832    7835
CTRIA6      3810       1    1862    1812    1861    7836    7837    7833
CTRIA6      3811       1    1862    1813    1812    7834    7702    7836
CTRIA6      3812       1    1863    1860    1861    7838    7830    7839
CTRIA6      3813       1    1728    1863    9240    7840    7841    7842
CTRIA6      3814       1    1728    1860    1863    7827    7838    7840
CTRIA6      3815       1    1811    1861    1812    7843    7837    7686
CTRIA6      3816       1    1863    9239    9240    7844    9266    7841
CTRIA6      3817       1    1863    1810    9239    7845    7655    7844
CTRIA6      3818       1    1811    1863    1861    7846    7839    7843
CTRIA6      3819       1    1811    1810    1863    7660    7845    7846
CTRIA6      3820       1    1841    1866    1857    7847    7848    7820
CTRIA6      3821       1    1866    1840    1865    7849    7850    7851
CTRIA6      3822       1    1866    1841    1840    7847    7786    7849
CTRIA6      3823       1    1838    1864    1839    7852    7853    7778
CTRIA6      3824       1    1838    1856    1864    7814    7854    7852
CTRIA6      3825       1    1839    1865    1840    7855    7850    7781
CTRIA6      3826       1    1839    1864    1865    7853    7856    7855
CTRIA6      3827       1    1868    1856    1855    7857    7816    7858
CTRIA6      3828       1    1864    1868    1867    7859    7860    7861
CTRIA6      3829       1    1864    1856    1868    7854    7857    7859
CTRIA6      3830       1    1867    1818    1817    7862    7733    7863
CTRIA6      3831       1    1867    1868    1818    7860    7864    7862
CTRIA6      3832       1    1854    1869    1855    7865    7866    7812
CTRIA6      3833       1    1869    1820    1819    7867    7721    7868
CTRIA6      3834       1    1869    1854    1820    7865    7808    7867
CTRIA6      3835       1    1869    1868    1855    7869    7858    7866
CTRIA6      3836       1    1869    1819    1818    7868    7729    7870
CTRIA6      3837       1    1868    1869    1818    7869    7870    7864
CTRIA6      3838       1    1867    1865    1864    7871    7856    7861
CTRIA6      3839       1    1858    1814    1813    7872    7715    7835
CTRIA6      3840       1    1870    1858    1857    7873    7822    7874
CTRIA6      3841       1    1814    1870    1815    7875    7876    7717
CTRIA6      3842       1    1814    1858    1870    7872    7873    7875
CTRIA6      3843       1    1871    1815    1870    7877    7876    7878
CTRIA6      3844       1    1871    1816    1815    7879    7708    7877
CTRIA6      3845       1    1872    1816    1871    7880    7879    7881
CTRIA6      3846       1    1817    1872    1867    7882    7883    7863
CTRIA6      3847       1    1817    1816    1872    7725    7880    7882
CTRIA6      3848       1    1872    1865    1867    7884    7871    7883
CTRIA6      3849       1    1866    1870    1857    7885    7874    7848
CTRIA6      3850       1    1866    1871    1870    7886    7878    7885
CTRIA6      3851       1    1872    1866    1865    7887    7851    7884
CTRIA6      3852       1    1872    1871    1866    7881    7886    7887
CTRIA6      3853       1    1825    1877    1826    7888    7889    7677
CTRIA6      3854       1    1880    1825    1824    7890    7681    7891
CTRIA6      3855       1    1877    1880    1876    7892    7893    7894
CTRIA6      3856       1    1877    1825    1880    7888    7890    7892
CTRIA6      3857       1    1876    1879    1875    7895    7896    7897
CTRIA6      3858       1    1876    1880    1879    7893    7898    7895
CTRIA6      3859       1    1878    1824    1823    7899    7689    7900
CTRIA6      3860       1    1880    1878    1879    7901    7902    7898
CTRIA6      3861       1    1880    1824    1878    7891    7899    7901
CTRIA6      3862       1    1873    1831    1830    7903    7739    7904
CTRIA6      3863       1    1831    1881    1832    7905    7906    7791
CTRIA6      3864       1    1881    1873    1874    7907    7908    7909
CTRIA6      3865       1    1881    1831    1873    7905    7903    7907
CTRIA6      3866       1    1882    1875    1879    7910    7896    7911
CTRIA6      3867       1    1874    1882    1881    7912    7913    7909
CTRIA6      3868       1    1874    1875    1882    7914    7910    7912
CTRIA6      3869       1    1879    1884    1882    7915    7916    7911
CTRIA6      3870       1    1879    1878    1884    7902    7917    7915
CTRIA6      3871       1    1878    1883    1884    7918    7919    7917
CTRIA6      3872       1    1883    1823    1822    7920    7693    7921
CTRIA6      3873       1    1883    1878    1823    7918    7900    7920
CTRIA6      3874       1    1834    1822    1821    7922    7697    7809
CTRIA6      3875       1    1885    1834    1833    7923    7798    7924
CTRIA6      3876       1    1834    1883    1822    7925    7921    7922
CTRIA6      3877       1    1834    1885    1883    7923    7926    7925
CTRIA6      3878       1    1886    1832    1881    7927    7906    7928
CTRIA6      3879       1    1833    1886    1885    7929    7930    7924
CTRIA6      3880       1    1833    1832    1886    7793    7927    7929
CTRIA6      3881       1    1885    1884    1883    7931    7919    7926
CTRIA6      3882       1    1885    1886    1884    7930    7932    7931
CTRIA6      3883       1    1882    1886    1881    7933    7928    7913
CTRIA6      3884       1    1882    1884    1886    7916    7932    7933
CTRIA6      3885       1    1887    1877    1876    7934    7894    7935
CTRIA6      3886       1    1877    1893    1826    7936    7937    7889
CTRIA6      3887       1    1893    1887    1888    7938    7939    7940
CTRIA6      3888       1    1893    1877    1887    7936    7934    7938
CTRIA6      3889       1    1827    1893    1892    7941    7942    7943
CTRIA6      3890       1    1827    1826    1893    7673    7937    7941
CTRIA6      3891       1    1892    1888    1889    7944    7945    7946
CTRIA6      3892       1    1892    1893    1888    7942    7940    7944
CTRIA6      3893       1    1892    1828    1827    7947    7669    7943
CTRIA6      3894       1    1828    1894    1829    7948    7949    7665
CTRIA6      3895       1    1894    1892    1889    7950    7946    7951
CTRIA6      3896       1    1894    1828    1892    7948    7947    7950
CTRIA6      3897       1    8911    1891    8912    7952    7953    8943
CTRIA6      3898       1    1895    8911    8910    7954    8944    7955
CTRIA6      3899       1    1891    1895    1890    7956    7957    7958
CTRIA6      3900       1    1891    8911    1895    7952    7954    7956
CTRIA6      3901       1    1890    1894    1889    7959    7951    7960
CTRIA6      3902       1    1890    1895    1894    7957    7961    7959
CTRIA6      3903       1    1829    1895    8910    7962    7955    7662
CTRIA6      3904       1    1829    1894    1895    7949    7961    7962
CTRIA6      3905       1    8912    1902    8913    7963    7964    8945
CTRIA6      3906       1    1896    1876    1875    7965    7897    7966
CTRIA6      3907       1    1902    1891    1901    7967    7968    7969
CTRIA6      3908       1    1902    8912    1891    7963    7953    7967
CTRIA6      3909       1    1896    1887    1876    7970    7935    7965
CTRIA6      3910       1    1897    1887    1896    7971    7970    7972
CTRIA6      3911       1    1901    1890    1900    7973    7974    7975
CTRIA6      3912       1    1901    1891    1890    7968    7958    7973
CTRIA6      3913       1    1897    1888    1887    7976    7939    7971
CTRIA6      3914       1    1897    1898    1888    7977    7978    7976
CTRIA6      3915       1    1900    1889    1899    7979    7980    7981
CTRIA6      3916       1    1900    1890    1889    7974    7960    7979
CTRIA6      3917       1    1898    1889    1888    7982    7945    7978
CTRIA6      3918       1    1898    1899    1889    7983    7980    7982
CTRIA6      3919       1    1907    1900    1899    7984    7981    7985
CTRIA6      3920       1    1900    1908    1901    7986    7987    7975
CTRIA6      3921       1    1900    1907    1908    7984    7988    7986
CTRIA6      3922       1    1901    1909    1902    7989    7990    7969
CTRIA6      3923       1    1901    1908    1909    7987    7991    7989
CTRIA6      3924       1    8913    1910    8914    7992    7993    8946
CTRIA6      3925       1    1910    1902    1909    7994    7990    7995
CTRIA6      3926       1    1910    8913    1902    7992    7964    7994
CTRIA6      3927       1    1899    1906    1907    7996    7997    7985
CTRIA6      3928       1    1898    1906    1899    7998    7996    7983
CTRIA6      3929       1    1898    1905    1906    7999    8000    7998
CTRIA6      3930       1    1897    1905    1898    8001    7999    7977
CTRIA6      3931       1    1897    1904    1905    8002    8003    8001
CTRIA6      3932       1    1896    1904    1897    8004    8002    7972
CTRIA6      3933       1    1903    1875    1874    8005    7914    8006
CTRIA6      3934       1    1896    1903    1904    8007    8008    8004
CTRIA6      3935       1    1896    1875    1903    7966    8005    8007
CTRIA6      3936       1    8914    1919    8915    8009    8010    8947
CTRIA6      3937       1    1919    1910    1918    8011    8012    8013
CTRIA6      3938       1    1919    8914    1910    8009    7993    8011
CTRIA6      3939       1    1908    1917    1909    8014    8015    7991
CTRIA6      3940       1    1908    1916    1917    8016    8017    8014
CTRIA6      3941       1    1909    1918    1910    8018    8012    7995
CTRIA6      3942       1    1909    1917    1918    8015    8019    8018
CTRIA6      3943       1    1907    1916    1908    8020    8016    7988
CTRIA6      3944       1    1915    1907    1906    8021    7997    8022
CTRIA6      3945       1    1915    1916    1907    8023    8020    8021
CTRIA6      3946       1    1906    1914    1915    8024    8025    8022
CTRIA6      3947       1    1906    1905    1914    8000    8026    8024
CTRIA6      3948       1    1905    1913    1914    8027    8028    8026
CTRIA6      3949       1    1905    1904    1913    8003    8029    8027
CTRIA6      3950       1    1904    1912    1913    8030    8031    8029
CTRIA6      3951       1    1904    1903    1912    8008    8032    8030
CTRIA6      3952       1    1911    1874    1873    8033    7908    8034
CTRIA6      3953       1    1903    1911    1912    8035    8036    8032
CTRIA6      3954       1    1903    1874    1911    8006    8033    8035
CTRIA6      3955       1    1917    1923    1918    8037    8038    8019
CTRIA6      3956       1    1929    1917    1916    8039    8017    8040
CTRIA6      3957       1    1923    1929    1922    8041    8042    8043
CTRIA6      3958       1    1923    1917    1929    8037    8039    8041
CTRIA6      3959       1    1922    1928    1921    8044    8045    8046
CTRIA6      3960       1    1922    1929    1928    8042    8047    8044
CTRIA6      3961       1    1927    1916    1915    8048    8023    8049
CTRIA6      3962       1    1929    1927    1928    8050    8051    8047
CTRIA6      3963       1    1929    1916    1927    8040    8048    8050
CTRIA6      3964       1    1921    1926    1920    8052    8053    8054
CTRIA6      3965       1    1921    1928    1926    8045    8055    8052
CTRIA6      3966       1    1928    1925    1926    8056    8057    8055
CTRIA6      3967       1    1928    1927    1925    8051    8058    8056
CTRIA6      3968       1    1924    1915    1914    8059    8025    8060
CTRIA6      3969       1    1927    1924    1925    8061    8062    8058
CTRIA6      3970       1    1927    1915    1924    8049    8059    8061
CTRIA6      3971       1    1924    1934    1925    8063    8064    8062
CTRIA6      3972       1    1873    1930    1911    8065    8066    8034
CTRIA6      3973       1    1873    1830    1930    7904    8067    8065
CTRIA6      3974       1    1931    1911    1930    8068    8066    8069
CTRIA6      3975       1    1911    1935    1912    8070    8071    8036
CTRIA6      3976       1    1911    1931    1935    8068    8072    8070
CTRIA6      3977       1    1912    1936    1913    8073    8074    8031
CTRIA6      3978       1    1912    1935    1936    8071    8075    8073
CTRIA6      3979       1    1914    1937    1924    8076    8077    8060
CTRIA6      3980       1    1937    1913    1936    8078    8074    8079
CTRIA6      3981       1    1937    1914    1913    8076    8028    8078
CTRIA6      3982       1    1935    1932    1936    8080    8081    8075
CTRIA6      3983       1    1935    1931    1932    8072    8082    8080
CTRIA6      3984       1    1934    1937    1933    8083    8084    8085
CTRIA6      3985       1    1934    1924    1937    8063    8077    8083
CTRIA6      3986       1    1933    1936    1932    8086    8081    8087
CTRIA6      3987       1    1933    1937    1936    8084    8079    8086
CTRIA6      3988       1    1800    1930    1830    8088    8067    7735
CTRIA6      3989       1    1800    1799    1930    7643    8089    8088
CTRIA6      3990       1    1938    1799    1798    8090    7637    8091
CTRIA6      3991       1    1799    1931    1930    8092    8069    8089
CTRIA6      3992       1    1799    1938    1931    8090    8093    8092
CTRIA6      3993       1    1932    1938    1939    8094    8095    8096
CTRIA6      3994       1    1932    1931    1938    8082    8093    8094
CTRIA6      3995       1    1939    1798    1797    8097    7631    8098
CTRIA6      3996       1    1939    1938    1798    8095    8091    8097
CTRIA6      3997       1    1939    1933    1932    8099    8087    8096
CTRIA6      3998       1    1933    1940    1934    8100    8101    8085
CTRIA6      3999       1    1940    1939    1797    8102    8098    8103
CTRIA6      4000       1    1940    1933    1939    8100    8099    8102
CTRIA6      4001       1    1796    1940    1797    8104    8103    7625
CTRIA6      4002       1    1940    1941    1934    8105    8106    8101
CTRIA6      4003       1    1941    1796    1795    8107    7619    8108
CTRIA6      4004       1    1941    1940    1796    8105    8104    8107
CTRIA6      4005       1    1941    1925    1934    8109    8064    8106
CTRIA6      4006       1    1942    1920    1926    8110    8053    8111
CTRIA6      4007       1    1794    1942    1795    8112    8113    7613
CTRIA6      4008       1    1794    1920    1942    8114    8110    8112
CTRIA6      4009       1    1942    1941    1795    8115    8108    8113
CTRIA6      4010       1    1941    1926    1925    8116    8057    8109
CTRIA6      4011       1    1941    1942    1926    8115    8111    8116
CTRIA6      4012       1    1943    1923    1922    8117    8043    8118
CTRIA6      4013       1    1923    1946    1918    8119    8120    8038
CTRIA6      4014       1    1946    1943    1944    8121    8122    8123
CTRIA6      4015       1    1946    1923    1943    8119    8117    8121
CTRIA6      4016       1    1946    1919    1918    8124    8013    8120
CTRIA6      4017       1    8916    1945    8917    8125    8126    8948
CTRIA6      4018       1    1919    1947    8915    8127    8128    8010
CTRIA6      4019       1    1947    1946    1944    8129    8123    8130
CTRIA6      4020       1    1947    1919    1946    8127    8124    8129
CTRIA6      4021       1    1947    8916    8915    8131    8949    8128
CTRIA6      4022       1    1945    1947    1944    8132    8130    8133
CTRIA6      4023       1    1945    8916    1947    8125    8131    8132
CTRIA6      4024       1    1948    1922    1921    8134    8046    8135
CTRIA6      4025       1    1943    1948    1949    8136    8137    8138
CTRIA6      4026       1    1943    1922    1948    8118    8134    8136
CTRIA6      4027       1    8917    1951    8918    8139    8140    8950
CTRIA6      4028       1    1951    1945    1950    8141    8142    8143
CTRIA6      4029       1    1951    8917    1945    8139    8126    8141
CTRIA6      4030       1    1949    1944    1943    8144    8122    8138
CTRIA6      4031       1    1944    1950    1945    8145    8142    8133
CTRIA6      4032       1    1944    1949    1950    8144    8146    8145
CTRIA6      4033       1    8918    1957    8919    8147    8148    8951
CTRIA6      4034       1    1952    1921    1920    8149    8054    8150
CTRIA6      4035       1    1957    1951    1956    8151    8152    8153
CTRIA6      4036       1    1957    8918    1951    8147    8140    8151
CTRIA6      4037       1    1952    1948    1921    8154    8135    8149
CTRIA6      4038       1    1952    1953    1948    8155    8156    8154
CTRIA6      4039       1    1956    1950    1955    8157    8158    8159
CTRIA6      4040       1    1956    1951    1950    8152    8143    8157
CTRIA6      4041       1    1953    1949    1948    8160    8137    8156
CTRIA6      4042       1    1953    1954    1949    8161    8162    8160
CTRIA6      4043       1    1949    1955    1950    8163    8158    8146
CTRIA6      4044       1    1949    1954    1955    8162    8164    8163
CTRIA6      4045       1    1955    1959    1956    8165    8166    8159
CTRIA6      4046       1    1960    1955    1954    8167    8164    8168
CTRIA6      4047       1    1959    1960    1958    8169    8170    8171
CTRIA6      4048       1    1959    1955    1960    8165    8167    8169
CTRIA6      4049       1    1961    1958    1960    8172    8170    8173
CTRIA6      4050       1    1790    1961    1791    8174    8175    7598
CTRIA6      4051       1    1790    1958    1961    8176    8172    8174
CTRIA6      4052       1    1960    1962    1961    8177    8178    8173
CTRIA6      4053       1    1962    1954    1953    8179    8161    8180
CTRIA6      4054       1    1962    1960    1954    8177    8168    8179
CTRIA6      4055       1    1963    1961    1962    8181    8178    8182
CTRIA6      4056       1    1791    1963    1792    8183    8184    7601
CTRIA6      4057       1    1791    1961    1963    8175    8181    8183
CTRIA6      4058       1    1964    1793    1792    8185    7604    8186
CTRIA6      4059       1    1793    1920    1794    8187    8114    7610
CTRIA6      4060       1    1920    1964    1952    8188    8189    8150
CTRIA6      4061       1    1920    1793    1964    8187    8185    8188
CTRIA6      4062       1    1963    1964    1792    8190    8186    8184
CTRIA6      4063       1    1964    1953    1952    8191    8155    8189
CTRIA6      4064       1    1953    1963    1962    8192    8182    8180
CTRIA6      4065       1    1953    1964    1963    8191    8190    8192
CTRIA6      4066       1    1965    1956    1959    8193    8166    8194
CTRIA6      4067       1    1965    1957    1956    8195    8153    8193
CTRIA6      4068       1    8919    1966    8920    8196    8197    8952
CTRIA6      4069       1    1966    1957    1965    8198    8195    8199
CTRIA6      4070       1    1966    8919    1957    8196    8148    8198
CTRIA6      4071       1    8920    1969    8921    8200    8201    8953
CTRIA6      4072       1    1969    1966    1968    8202    8203    8204
CTRIA6      4073       1    1969    8920    1966    8200    8197    8202
CTRIA6      4074       1    1959    1967    1965    8205    8206    8194
CTRIA6      4075       1    1959    1958    1967    8171    8207    8205
CTRIA6      4076       1    1965    1968    1966    8208    8203    8199
CTRIA6      4077       1    1965    1967    1968    8206    8209    8208
CTRIA6      4078       1    1970    1789    1788    8210    7592    8211
CTRIA6      4079       1    1789    1958    1790    8212    8176    7595
CTRIA6      4080       1    1967    1789    1970    8213    8210    8214
CTRIA6      4081       1    1967    1958    1789    8207    8212    8213
CTRIA6      4082       1    1785    1971    1786    8215    8216    7580
CTRIA6      4083       1    8974    1972    1785    8217    8218    7578
CTRIA6      4084       1    1972    9335    8923    8219    8954    8220
CTRIA6      4085       1    1972    8974    9335    8217    9038    8219
CTRIA6      4086       1    8922    1973    8923    8221    8222    8955
CTRIA6      4087       1    8922    1971    1973    8223    8224    8221
CTRIA6      4088       1    8923    1973    1972    8222    8225    8220
CTRIA6      4089       1    1973    1971    1785    8224    8215    8226
CTRIA6      4090       1    1972    1973    1785    8225    8226    8218
CTRIA6      4091       1    1788    1975    1970    8227    8228    8211
CTRIA6      4092       1    1788    1787    1975    7586    8229    8227
CTRIA6      4093       1    1787    1974    1975    8230    8231    8229
CTRIA6      4094       1    1974    1786    1971    8232    8216    8233
CTRIA6      4095       1    1974    1787    1786    8230    7583    8232
CTRIA6      4096       1    1970    1968    1967    8234    8209    8214
CTRIA6      4097       1    1976    1968    1970    8235    8234    8236
CTRIA6      4098       1    1968    1976    1969    8235    8237    8204
CTRIA6      4099       1    1970    1975    1976    8228    8238    8236
CTRIA6      4100       1    1971    1977    1974    8239    8240    8233
CTRIA6      4101       1    1977    8922    8921    8241    8956    8242
CTRIA6      4102       1    1977    1971    8922    8239    8223    8241
CTRIA6      4103       1    1974    1976    1975    8243    8238    8231
CTRIA6      4104       1    1974    1977    1976    8240    8244    8243
CTRIA6      4105       1    1969    1977    8921    8245    8242    8201
CTRIA6      4106       1    1969    1976    1977    8237    8244    8245
CTRIA6      4107       1    1732    1160    1159    8246    6575    7449
CTRIA6      4108       1    1723    1732    1731    8247    7590    8248
CTRIA6      4109       1    1723    1160    1732    7401    8246    8247
CTRIA6      4110       1    1731    1724    1723    8249    7405    8248
CTRIA6      4111       1    1724    1730    1725    8250    8251    7417
CTRIA6      4112       1    1724    1731    1730    8249    7766    8250
CTRIA6      4113       1    9241    1728    9240    8252    7842    9267
CTRIA6      4114       1    1729    1725    1730    8253    8251    7761
CTRIA6      4115       1    1725    1978    9242    8254    8255    7414
CTRIA6      4116       1    1725    1729    1978    8253    8256    8254
CTRIA6      4117       1    1978    9241    9242    8257    9268    8255
CTRIA6      4118       1    1728    1978    1729    8258    8256    7828
CTRIA6      4119       1    1728    9241    1978    8252    8257    8258
CTRIA6      4120       1    1985    1136    1135    8259    7685    8260
CTRIA6      4121       1    1137    9237    1810    8261    7654    7659
CTRIA6      4122       1    1986    1988    1985    8262    8263    8264
CTRIA6      4123       1    1988    9235    9236    8265    9269    8266
CTRIA6      4124       1    1988    1986    9235    8262    8267    8265
CTRIA6      4125       1    1136    1988    1137    8268    8269    7658
CTRIA6      4126       1    1136    1985    1988    8259    8263    8268
CTRIA6      4127       1    1137    9236    9237    8270    9270    8261
CTRIA6      4128       1    1137    1988    9236    8269    8266    8270
CTRIA6      4129       1    9341    1987    9320    8271    8272    9321
CTRIA6      4130       1    1986    9341    9235    8273    9271    8267
CTRIA6      4131       1    1986    1987    9341    8274    8271    8273
CTRIA6      4132       1    9317    1984    9316    8275    8276    9322
CTRIA6      4133       1    1989    9317    9318    8277    9323    8278
CTRIA6      4134       1    1984    1989    1983    8279    8280    8281
CTRIA6      4135       1    1984    9317    1989    8275    8277    8279
CTRIA6      4136       1    1132    1979    1133    8282    8283    7718
CTRIA6      4137       1    1133    1990    1134    8284    8285    7714
CTRIA6      4138       1    1990    1979    1980    8286    8287    8288
CTRIA6      4139       1    1990    1133    1979    8284    8283    8286
CTRIA6      4140       1    1983    1991    1982    8289    8290    8291
CTRIA6      4141       1    1983    1989    1991    8280    8292    8289
CTRIA6      4142       1    1982    1992    1981    8293    8294    8295
CTRIA6      4143       1    1982    1991    1992    8290    8296    8293
CTRIA6      4144       1    1993    1981    1992    8297    8294    8298
CTRIA6      4145       1    1980    1993    1990    8299    8300    8288
CTRIA6      4146       1    1980    1981    1993    8301    8297    8299
CTRIA6      4147       1    1994    9318    9319    8302    9324    8303
CTRIA6      4148       1    1989    1994    1991    8304    8305    8292
CTRIA6      4149       1    1989    9318    1994    8278    8302    8304
CTRIA6      4150       1    1995    1993    1992    8306    8298    8307
CTRIA6      4151       1    1996    1135    1134    8308    7701    8309
CTRIA6      4152       1    1985    1996    1995    8310    8311    8312
CTRIA6      4153       1    1985    1135    1996    8260    8308    8310
CTRIA6      4154       1    1996    1993    1995    8313    8306    8311
CTRIA6      4155       1    1990    1996    1134    8314    8309    8285
CTRIA6      4156       1    1990    1993    1996    8300    8313    8314
CTRIA6      4157       1    1997    9320    1987    8315    8272    8316
CTRIA6      4158       1    9319    1997    1994    8317    8318    8303
CTRIA6      4159       1    9319    9320    1997    9325    8315    8317
CTRIA6      4160       1    1998    1992    1991    8319    8296    8320
CTRIA6      4161       1    1995    1986    1985    8321    8264    8312
CTRIA6      4162       1    1998    1995    1992    8322    8307    8319
CTRIA6      4163       1    1995    1999    1986    8323    8324    8321
CTRIA6      4164       1    1995    1998    1999    8322    8325    8323
CTRIA6      4165       1    1994    1998    1991    8326    8320    8305
CTRIA6      4166       1    1997    1998    1994    8327    8326    8318
CTRIA6      4167       1    1997    1999    1998    8328    8325    8327
CTRIA6      4168       1    1999    1987    1986    8329    8274    8324
CTRIA6      4169       1    1999    1997    1987    8328    8316    8329
CTRIA6      4170       1    9312    2000    9311    8330    8331    9326
CTRIA6      4171       1    2001    9311    2000    8332    8331    8333
CTRIA6      4172       1    2001    9310    9311    8334    9327    8332
CTRIA6      4173       1    9310    2003    9309    8335    8336    9328
CTRIA6      4174       1    2003    2001    2002    8337    8338    8339
CTRIA6      4175       1    2003    9310    2001    8335    8334    8337
CTRIA6      4176       1    9309      19    9342    8340    2850    9329
CTRIA6      4177       1    2002      20    2003    8341    8342    8339
CTRIA6      4178       1    2002      21      20    8343    2866    8341
CTRIA6      4179       1    2003      19    9309    8344    8340    8336
CTRIA6      4180       1    2003      20      19    8342    2859    8344
CTRIA6      4181       1    8908    1119    8909    8345    7666    8957
CTRIA6      4182       1    2026    8908    8907    8346    8958    8347
CTRIA6      4183       1    1119    2026    1120    8348    8349    7670
CTRIA6      4184       1    1119    8908    2026    8345    8346    8348
CTRIA6      4185       1    1120    2025    1121    8350    8351    7674
CTRIA6      4186       1    1120    2026    2025    8349    8352    8350
CTRIA6      4187       1    2024    8907    8906    8353    8959    8354
CTRIA6      4188       1    2026    2024    2025    8355    8356    8352
CTRIA6      4189       1    2026    8907    2024    8347    8353    8355
CTRIA6      4190       1    2022    2028    2027    8357    8358    8359
CTRIA6      4191       1    2022    2023    2028    8360    8361    8357
CTRIA6      4192       1    1122    2023    1123    8362    8363    7682
CTRIA6      4193       1    1122    2028    2023    8364    8361    8362
CTRIA6      4194       1    2027    2025    2024    8365    8356    8366
CTRIA6      4195       1    2027    2028    2025    8358    8367    8365
CTRIA6      4196       1    1121    2028    1122    8368    8364    7678
CTRIA6      4197       1    1121    2025    2028    8351    8367    8368
CTRIA6      4198       1    2029    8906    8905    8369    8960    8370
CTRIA6      4199       1    2024    2029    2027    8371    8372    8366
CTRIA6      4200       1    2024    8906    2029    8354    8369    8371
CTRIA6      4201       1    2027    2021    2022    8373    8374    8359
CTRIA6      4202       1    2027    2029    2021    8372    8375    8373
CTRIA6      4203       1    2020    8905    8904    8376    8961    8377
CTRIA6      4204       1    2029    2020    2021    8378    8379    8375
CTRIA6      4205       1    2029    8905    2020    8370    8376    8378
CTRIA6      4206       1    2021    2031    2032    8380    8381    8382
CTRIA6      4207       1    2021    2020    2031    8379    8383    8380
CTRIA6      4208       1    2030    8904    8903    8384    8962    8385
CTRIA6      4209       1    2020    2030    2031    8386    8387    8383
CTRIA6      4210       1    2020    8904    2030    8377    8384    8386
CTRIA6      4211       1    1123    2034    1124    8388    8389    7690
CTRIA6      4212       1    1123    2023    2034    8363    8390    8388
CTRIA6      4213       1    2032    2022    2021    8391    8374    8382
CTRIA6      4214       1    2032    2033    2022    8392    8393    8391
CTRIA6      4215       1    2023    2033    2034    8394    8395    8390
CTRIA6      4216       1    2023    2022    2033    8360    8393    8394
CTRIA6      4217       1    2031    2036    2037    8396    8397    8398
CTRIA6      4218       1    2031    2030    2036    8387    8399    8396
CTRIA6      4219       1    2035    8903    8902    8400    8963    8401
CTRIA6      4220       1    2030    2035    2036    8402    8403    8399
CTRIA6      4221       1    2030    8903    2035    8385    8400    8402
CTRIA6      4222       1    2037    2032    2031    8404    8381    8398
CTRIA6      4223       1    2037    2038    2032    8405    8406    8404
CTRIA6      4224       1    2038    2033    2032    8407    8392    8406
CTRIA6      4225       1    2038    2039    2033    8408    8409    8407
CTRIA6      4226       1    1124    2040    1125    8410    8411    7694
CTRIA6      4227       1    1124    2034    2040    8389    8412    8410
CTRIA6      4228       1    2039    2034    2033    8413    8395    8409
CTRIA6      4229       1    2039    2040    2034    8414    8412    8413
CTRIA6      4230       1    2041    8902    8901    8415    8964    8416
CTRIA6      4231       1    2035    2041    2042    8417    8418    8419
CTRIA6      4232       1    2035    8902    2041    8401    8415    8417
CTRIA6      4233       1    2037    2043    2044    8420    8421    8422
CTRIA6      4234       1    2037    2036    2043    8397    8423    8420
CTRIA6      4235       1    2042    2036    2035    8424    8403    8419
CTRIA6      4236       1    2042    2043    2036    8425    8423    8424
CTRIA6      4237       1    1125    2047    1126    8426    8427    7698
CTRIA6      4238       1    1125    2040    2047    8411    8428    8426
CTRIA6      4239       1    2040    2046    2047    8429    8430    8428
CTRIA6      4240       1    2040    2039    2046    8414    8431    8429
CTRIA6      4241       1    2044    2038    2037    8432    8405    8422
CTRIA6      4242       1    2044    2045    2038    8433    8434    8432
CTRIA6      4243       1    2039    2045    2046    8435    8436    8431
CTRIA6      4244       1    2039    2038    2045    8408    8434    8435
CTRIA6      4245       1    1126    2055    1127    8437    8438    7706
CTRIA6      4246       1    1126    2047    2055    8427    8439    8437
CTRIA6      4247       1    2052    2045    2044    8440    8433    8441
CTRIA6      4248       1    2052    2053    2045    8442    8443    8440
CTRIA6      4249       1    2047    2054    2055    8444    8445    8439
CTRIA6      4250       1    2047    2046    2054    8430    8446    8444
CTRIA6      4251       1    2053    2046    2045    8447    8436    8443
CTRIA6      4252       1    2053    2054    2046    8448    8446    8447
CTRIA6      4253       1    2044    2051    2052    8449    8450    8441
CTRIA6      4254       1    2044    2043    2051    8421    8451    8449
CTRIA6      4255       1    2050    2043    2042    8452    8425    8453
CTRIA6      4256       1    2050    2051    2043    8454    8451    8452
CTRIA6      4257       1    2042    2049    2050    8455    8456    8453
CTRIA6      4258       1    2042    2041    2049    8418    8457    8455
CTRIA6      4259       1    2048    8901    8900    8458    8965    8459
CTRIA6      4260       1    2041    2048    2049    8460    8461    8457
CTRIA6      4261       1    2041    8901    2048    8416    8458    8460
CTRIA6      4262       1    1127    2063    1128    8462    8463    7722
CTRIA6      4263       1    2056    8900    8899    8464    8966    8465
CTRIA6      4264       1    2055    2063    1127    8466    8462    8438
CTRIA6      4265       1    2056    2048    8900    8467    8459    8464
CTRIA6      4266       1    2055    2062    2063    8468    8469    8466
CTRIA6      4267       1    2057    2048    2056    8470    8467    8471
CTRIA6      4268       1    2054    2062    2055    8472    8468    8445
CTRIA6      4269       1    2057    2049    2048    8473    8461    8470
CTRIA6      4270       1    2054    2061    2062    8474    8475    8472
CTRIA6      4271       1    2058    2049    2057    8476    8473    8477
CTRIA6      4272       1    2053    2061    2054    8478    8474    8448
CTRIA6      4273       1    2058    2050    2049    8479    8456    8476
CTRIA6      4274       1    2053    2060    2061    8480    8481    8478
CTRIA6      4275       1    2052    2060    2053    8482    8480    8442
CTRIA6      4276       1    2050    2059    2051    8483    8484    8454
CTRIA6      4277       1    2050    2058    2059    8479    8485    8483
CTRIA6      4278       1    2052    2059    2060    8486    8487    8482
CTRIA6      4279       1    2052    2051    2059    8450    8484    8486
CTRIA6      4280       1    8899    2064    2056    8488    8489    8465
CTRIA6      4281       1    8899    8898    2064    8967    8490    8488
CTRIA6      4282       1    2056    2065    2057    8491    8492    8471
CTRIA6      4283       1    2056    2064    2065    8489    8493    8491
CTRIA6      4284       1    2067    2058    2066    8494    8495    8496
CTRIA6      4285       1    2067    2059    2058    8497    8485    8494
CTRIA6      4286       1    2066    2057    2065    8498    8492    8499
CTRIA6      4287       1    2066    2058    2057    8495    8477    8498
CTRIA6      4288       1    2060    2068    2069    8500    8501    8502
CTRIA6      4289       1    2068    2059    2067    8503    8497    8504
CTRIA6      4290       1    2068    2060    2059    8500    8487    8503
CTRIA6      4291       1    1128    2072    1129    8505    8506    7730
CTRIA6      4292       1    1128    2063    2072    8463    8507    8505
CTRIA6      4293       1    2071    2063    2062    8508    8469    8509
CTRIA6      4294       1    2071    2072    2063    8510    8507    8508
CTRIA6      4295       1    2069    2061    2060    8511    8481    8502
CTRIA6      4296       1    2069    2070    2061    8512    8513    8511
CTRIA6      4297       1    2062    2070    2071    8514    8515    8509
CTRIA6      4298       1    2062    2061    2070    8475    8513    8514
CTRIA6      4299       1    2016    2077    2015    8516    8517    8518
CTRIA6      4300       1    2077    2079    2076    8519    8520    8521
CTRIA6      4301       1    2080    2077    2016    8522    8516    8523
CTRIA6      4302       1    2080    2079    2077    8524    8519    8522
CTRIA6      4303       1    2078    2017    2018    8525    8526    8527
CTRIA6      4304       1    2080    2078    2079    8528    8529    8524
CTRIA6      4305       1    2017    2080    2016    8530    8523    8531
CTRIA6      4306       1    2017    2078    2080    8525    8528    8530
CTRIA6      4307       1    2081    2019    9314    8532    8533    8534
CTRIA6      4308       1    2019    2085    2018    8535    8536    8537
CTRIA6      4309       1    2085    2081    2082    8538    8539    8540
CTRIA6      4310       1    2085    2019    2081    8535    8532    8538
CTRIA6      4311       1    2076    2084    2075    8541    8542    8543
CTRIA6      4312       1    2076    2079    2084    8520    8544    8541
CTRIA6      4313       1    2079    2083    2084    8545    8546    8544
CTRIA6      4314       1    2079    2078    2083    8529    8547    8545
CTRIA6      4315       1    2085    2078    2018    8548    8527    8536
CTRIA6      4316       1    2078    2082    2083    8549    8550    8547
CTRIA6      4317       1    2078    2085    2082    8548    8540    8549
CTRIA6      4318       1    2073    1132    1131    8551    7710    8552
CTRIA6      4319       1    9315    2081    9314    8553    8534    9330
CTRIA6      4320       1    2086    2073    2074    8554    8555    8556
CTRIA6      4321       1    1132    2086    1979    8557    8558    8282
CTRIA6      4322       1    1132    2073    2086    8551    8554    8557
CTRIA6      4323       1    2074    2088    2086    8559    8560    8556
CTRIA6      4324       1    2087    2075    2084    8561    8542    8562
CTRIA6      4325       1    2075    2088    2074    8563    8559    8564
CTRIA6      4326       1    2075    2087    2088    8561    8565    8563
CTRIA6      4327       1    2081    2089    2082    8566    8567    8539
CTRIA6      4328       1    2081    9315    2089    8553    8568    8566
CTRIA6      4329       1    2084    2091    2087    8569    8570    8562
CTRIA6      4330       1    2084    2083    2091    8546    8571    8569
CTRIA6      4331       1    2090    2082    2089    8572    8567    8573
CTRIA6      4332       1    2083    2090    2091    8574    8575    8571
CTRIA6      4333       1    2083    2082    2090    8550    8572    8574
CTRIA6      4334       1    2086    1980    1979    8576    8287    8558
CTRIA6      4335       1    2092    1984    1983    8577    8281    8578
CTRIA6      4336       1    9316    2089    9315    8579    8568    9331
CTRIA6      4337       1    1984    2089    9316    8580    8579    8276
CTRIA6      4338       1    2089    2092    2090    8581    8582    8573
CTRIA6      4339       1    2089    1984    2092    8580    8577    8581
CTRIA6      4340       1    1980    2093    1981    8583    8584    8301
CTRIA6      4341       1    2093    2086    2088    8585    8560    8586
CTRIA6      4342       1    2093    1980    2086    8583    8576    8585
CTRIA6      4343       1    2090    2094    2091    8587    8588    8575
CTRIA6      4344       1    2094    1983    1982    8589    8291    8590
CTRIA6      4345       1    2092    2094    2090    8591    8587    8582
CTRIA6      4346       1    2092    1983    2094    8578    8589    8591
CTRIA6      4347       1    2095    1981    2093    8592    8584    8593
CTRIA6      4348       1    1982    2095    2094    8594    8595    8590
CTRIA6      4349       1    1982    1981    2095    8295    8592    8594
CTRIA6      4350       1    2091    2095    2087    8596    8597    8570
CTRIA6      4351       1    2091    2094    2095    8588    8595    8596
CTRIA6      4352       1    2087    2093    2088    8598    8586    8565
CTRIA6      4353       1    2087    2095    2093    8597    8593    8598
CTRIA6      4354       1    1129    2105    1130    8599    8600    7732
CTRIA6      4355       1    1129    2072    2105    8506    8601    8599
CTRIA6      4356       1    2104    2072    2071    8602    8510    8603
CTRIA6      4357       1    2104    2105    2072    8604    8601    8602
CTRIA6      4358       1    2071    2103    2104    8605    8606    8603
CTRIA6      4359       1    2071    2070    2103    8515    8607    8605
CTRIA6      4360       1    2101    2069    2068    8608    8501    8609
CTRIA6      4361       1    2101    2102    2069    8610    8611    8608
CTRIA6      4362       1    2070    2102    2103    8612    8613    8607
CTRIA6      4363       1    2070    2069    2102    8512    8611    8612
CTRIA6      4364       1    8898    2096    2064    8614    8615    8490
CTRIA6      4365       1    8898    8897    2096    8968    8616    8614
CTRIA6      4366       1    2064    2097    2065    8617    8618    8493
CTRIA6      4367       1    2064    2096    2097    8615    8619    8617
CTRIA6      4368       1    2065    2098    2066    8620    8621    8499
CTRIA6      4369       1    2065    2097    2098    8618    8622    8620
CTRIA6      4370       1    2068    2100    2101    8623    8624    8609
CTRIA6      4371       1    2066    2099    2067    8625    8626    8496
CTRIA6      4372       1    2066    2098    2099    8621    8627    8625
CTRIA6      4373       1    2067    2100    2068    8628    8623    8504
CTRIA6      4374       1    2067    2099    2100    8626    8629    8628
CTRIA6      4375       1    2108    8897    8896    8630    8969    8631
CTRIA6      4376       1    2096    2108    2107    8632    8633    8634
CTRIA6      4377       1    2096    8897    2108    8616    8630    8632
CTRIA6      4378       1    2006    2106    2109    8635    8636    8637
CTRIA6      4379       1    2006    2007    2106    8638    8639    8635
CTRIA6      4380       1    2109    2107    2108    8640    8633    8641
CTRIA6      4381       1    2109    2106    2107    8636    8642    8640
CTRIA6      4382       1    2004    8895    8894    8643    8970    8644
CTRIA6      4383       1    8895    2110    8896    8645    8646    8971
CTRIA6      4384       1    2110    2004    2005    8647    8648    8649
CTRIA6      4385       1    2110    8895    2004    8645    8643    8647
CTRIA6      4386       1    2108    2110    2109    8650    8651    8641
CTRIA6      4387       1    2108    8896    2110    8631    8646    8650
CTRIA6      4388       1    2109    2005    2006    8652    8653    8637
CTRIA6      4389       1    2109    2110    2005    8651    8649    8652
CTRIA6      4390       1    2012    2113    2114    8654    8655    8656
CTRIA6      4391       1    2015    2119    2014    8657    8658    8659
CTRIA6      4392       1    2015    2077    2119    8517    8660    8657
CTRIA6      4393       1    2111    2077    2076    8661    8521    8662
CTRIA6      4394       1    2111    2119    2077    8663    8660    8661
CTRIA6      4395       1    2113    2013    2112    8664    8665    8666
CTRIA6      4396       1    2113    2012    2013    8654    8667    8664
CTRIA6      4397       1    2112    2119    2111    8668    8663    8669
CTRIA6      4398       1    2014    2112    2013    8670    8665    8671
CTRIA6      4399       1    2014    2119    2112    8658    8668    8670
CTRIA6      4400       1    2114    2011    2012    8672    8673    8656
CTRIA6      4401       1    2114    2115    2011    8674    8675    8672
CTRIA6      4402       1    2010    2115    2116    8676    8677    8678
CTRIA6      4403       1    2010    2011    2115    8679    8675    8676
CTRIA6      4404       1    2116    2009    2010    8680    8681    8678
CTRIA6      4405       1    2116    2117    2009    8682    8683    8680
CTRIA6      4406       1    2007    2118    2106    8684    8685    8639
CTRIA6      4407       1    2007    2008    2118    8686    8687    8684
CTRIA6      4408       1    2117    2008    2009    8688    8689    8683
CTRIA6      4409       1    2117    2118    2008    8690    8687    8688
CTRIA6      4410       1    2097    2107    2120    8691    8692    8693
CTRIA6      4411       1    2097    2096    2107    8619    8634    8691
CTRIA6      4412       1    2120    2106    2118    8694    8685    8695
CTRIA6      4413       1    2120    2107    2106    8692    8642    8694
CTRIA6      4414       1    2098    2120    2121    8696    8697    8698
CTRIA6      4415       1    2098    2097    2120    8622    8693    8696
CTRIA6      4416       1    2121    2118    2117    8699    8690    8700
CTRIA6      4417       1    2121    2120    2118    8697    8695    8699
CTRIA6      4418       1    2121    2099    2098    8701    8627    8698
CTRIA6      4419       1    2122    2117    2116    8702    8682    8703
CTRIA6      4420       1    2122    2121    2117    8704    8700    8702
CTRIA6      4421       1    2121    2123    2099    8705    8706    8701
CTRIA6      4422       1    2121    2122    2123    8704    8707    8705
CTRIA6      4423       1    2076    2130    2111    8708    8709    8662
CTRIA6      4424       1    2076    2075    2130    8543    8710    8708
CTRIA6      4425       1    2124    2075    2074    8711    8564    8712
CTRIA6      4426       1    2124    2130    2075    8713    8710    8711
CTRIA6      4427       1    2116    2129    2122    8714    8715    8703
CTRIA6      4428       1    2116    2115    2129    8677    8716    8714
CTRIA6      4429       1    2115    2128    2129    8717    8718    8716
CTRIA6      4430       1    2115    2114    2128    8674    8719    8717
CTRIA6      4431       1    2114    2127    2128    8720    8721    8719
CTRIA6      4432       1    2114    2113    2127    8655    8722    8720
CTRIA6      4433       1    2125    2130    2134    8723    8724    8725
CTRIA6      4434       1    2111    2125    2112    8726    8727    8669
CTRIA6      4435       1    2111    2130    2125    8709    8723    8726
CTRIA6      4436       1    2126    2112    2125    8728    8727    8729
CTRIA6      4437       1    2113    2126    2127    8730    8731    8722
CTRIA6      4438       1    2113    2112    2126    8666    8728    8730
CTRIA6      4439       1    2100    2123    2131    8732    8733    8734
CTRIA6      4440       1    2100    2099    2123    8629    8706    8732
CTRIA6      4441       1    2131    2122    2129    8735    8715    8736
CTRIA6      4442       1    2131    2123    2122    8733    8707    8735
CTRIA6      4443       1    2101    2131    2132    8737    8738    8739
CTRIA6      4444       1    2101    2100    2131    8624    8734    8737
CTRIA6      4445       1    2132    2129    2128    8740    8718    8741
CTRIA6      4446       1    2132    2131    2129    8738    8736    8740
CTRIA6      4447       1    2135    2074    2073    8742    8555    8743
CTRIA6      4448       1    2124    2135    2134    8744    8745    8746
CTRIA6      4449       1    2124    2074    2135    8712    8742    8744
CTRIA6      4450       1    1130    2136    1131    8747    8748    7724
CTRIA6      4451       1    1130    2105    2136    8600    8749    8747
CTRIA6      4452       1    2133    2105    2104    8750    8604    8751
CTRIA6      4453       1    2133    2136    2105    8752    8749    8750
CTRIA6      4454       1    2136    2073    1131    8753    8552    8748
CTRIA6      4455       1    2136    2135    2073    8754    8743    8753
CTRIA6      4456       1    2134    2136    2133    8755    8752    8756
CTRIA6      4457       1    2134    2135    2136    8745    8754    8755
CTRIA6      4458       1    2102    2132    2137    8757    8758    8759
CTRIA6      4459       1    2102    2101    2132    8610    8739    8757
CTRIA6      4460       1    2137    2128    2127    8760    8721    8761
CTRIA6      4461       1    2137    2132    2128    8758    8741    8760
CTRIA6      4462       1    2138    2127    2126    8762    8731    8763
CTRIA6      4463       1    2137    2103    2102    8764    8613    8759
CTRIA6      4464       1    2138    2137    2127    8765    8761    8762
CTRIA6      4465       1    2138    2103    2137    8766    8764    8765
CTRIA6      4466       1    2138    2104    2103    8767    8606    8766
CTRIA6      4467       1    2134    2130    2124    8724    8713    8746
CTRIA6      4468       1    2138    2133    2104    8768    8751    8767
CTRIA6      4469       1    2138    2126    2133    8763    8769    8768
CTRIA6      4470       1    2133    2125    2134    8770    8725    8756
CTRIA6      4471       1    2133    2126    2125    8769    8729    8770
CTRIA6      4472       1    2139    2017    2016    8771    8531    8772
CTRIA6      4473       1    2017    2142    2018    8773    8774    8526
CTRIA6      4474       1    2142    2139    2140    8775    8776    8777
CTRIA6      4475       1    2142    2017    2139    8773    8771    8775
CTRIA6      4476       1    2019    9313    9314    8778    9332    8533
CTRIA6      4477       1    9312    2143    2000    8779    8780    8330
CTRIA6      4478       1    9312    9313    2143    9333    8781    8779
CTRIA6      4479       1    2143    2019    2018    8782    8537    8783
CTRIA6      4480       1    2143    9313    2019    8781    8778    8782
CTRIA6      4481       1    2142    2143    2018    8784    8783    8774
CTRIA6      4482       1    2144    2140    2141    8785    8786    8787
CTRIA6      4483       1    2144    2142    2140    8788    8777    8785
CTRIA6      4484       1    2142    2145    2143    8789    8790    8784
CTRIA6      4485       1    2142    2144    2145    8788    8791    8789
CTRIA6      4486       1    2000    2145    2001    8792    8793    8333
CTRIA6      4487       1    2000    2143    2145    8780    8790    8792
CTRIA6      4488       1    2141    2002    2144    8794    8795    8787
CTRIA6      4489       1    2141      21    2002    8796    8343    8794
CTRIA6      4490       1    2144    2001    2145    8797    8793    8791
CTRIA6      4491       1    2144    2002    2001    8795    8338    8797
CTRIA6      4492       1    2139    2149    2140    8798    8799    8776
CTRIA6      4493       1    2150    2139    2016    8800    8772    8801
CTRIA6      4494       1    2149    2150    2148    8802    8803    8804
CTRIA6      4495       1    2149    2139    2150    8798    8800    8802
CTRIA6      4496       1    2146    2014    2013    8805    8671    8806
CTRIA6      4497       1    2014    2147    2015    8807    8808    8659
CTRIA6      4498       1    2014    2146    2147    8805    8809    8807
CTRIA6      4499       1    2015    2150    2016    8810    8801    8518
CTRIA6      4500       1    2148    2015    2147    8811    8808    8812
CTRIA6      4501       1    2148    2150    2015    8803    8810    8811
CTRIA6      4502       1      25    2147    2146    8813    8809    8814
CTRIA6      4503       1    2147      24    2148    8815    8816    8812
CTRIA6      4504       1    2147      25      24    8813    2895    8815
CTRIA6      4505       1      22    2141    2151    8817    8818    8819
CTRIA6      4506       1      22      21    2141    2869    8796    8817
CTRIA6      4507       1    2151    2140    2149    8820    8799    8821
CTRIA6      4508       1    2151    2141    2140    8818    8786    8820
CTRIA6      4509       1      23    2148      24    8822    8816    2852
CTRIA6      4510       1      23    2149    2148    8823    8804    8822
CTRIA6      4511       1    2151      23      22    8824    2861    8819
CTRIA6      4512       1    2151    2149      23    8821    8823    8824
CTRIA6      4513       1      36    8893    8892    8825    8972    2873
CTRIA6      4514       1      34    2153      35    8826    8827    2882
CTRIA6      4515       1      34    2152    2153    8828    8829    8826
CTRIA6      4516       1    2005    2152    2006    8830    8831    8653
CTRIA6      4517       1    2005    2153    2152    8832    8829    8830
CTRIA6      4518       1    2004    2153    2005    8833    8832    8648
CTRIA6      4519       1    2154    8893      36    8834    8825    8835
CTRIA6      4520       1    8894    2154    2004    8836    8837    8644
CTRIA6      4521       1    8894    8893    2154    8973    8834    8836
CTRIA6      4522       1      35    2154      36    8838    8835    2878
CTRIA6      4523       1    2154    2153    2004    8839    8833    8837
CTRIA6      4524       1    2154      35    2153    8838    8827    8839
CTRIA6      4525       1      33    2152      34    8840    8828    2886
CTRIA6      4526       1    2155    2152      33    8841    8840    8842
CTRIA6      4527       1    2006    2155    2007    8843    8844    8638
CTRIA6      4528       1    2006    2152    2155    8831    8841    8843
CTRIA6      4529       1    2007    2156    2008    8845    8846    8686
CTRIA6      4530       1    2007    2155    2156    8844    8847    8845
CTRIA6      4531       1      32    2155      33    8848    8842    2890
CTRIA6      4532       1      32    2156    2155    8849    8847    8848
CTRIA6      4533       1    2008    2157    2009    8850    8851    8689
CTRIA6      4534       1    2008    2156    2157    8846    8852    8850
CTRIA6      4535       1      31    2156      32    8853    8849    2898
CTRIA6      4536       1      31    2157    2156    8854    8852    8853
CTRIA6      4537       1    2146      26      25    8855    2922    8814
CTRIA6      4538       1      26    2013    2012    8856    8667    8857
CTRIA6      4539       1      26    2146    2013    8855    8806    8856
CTRIA6      4540       1    2009    2158    2010    8858    8859    8681
CTRIA6      4541       1    2009    2157    2158    8851    8860    8858
CTRIA6      4542       1      30    2157      31    8861    8854    2902
CTRIA6      4543       1      30    2158    2157    8862    8860    8861
CTRIA6      4544       1    2159    2012    2011    8863    8673    8864
CTRIA6      4545       1    2012      27      26    8865    2918    8857
CTRIA6      4546       1    2012    2159      27    8863    8866    8865
CTRIA6      4547       1    2160    2010    2158    8867    8859    8868
CTRIA6      4548       1    2011    2160    2159    8869    8870    8864
CTRIA6      4549       1    2011    2010    2160    8679    8867    8869
CTRIA6      4550       1    2159      28      27    8871    2914    8866
CTRIA6      4551       1    2159    2160      28    8870    8872    8871
CTRIA6      4552       1      29    2158      30    8873    8862    2906
CTRIA6      4553       1    2160      29      28    8874    2910    8872
CTRIA6      4554       1    2160    2158      29    8868    8873    8874
$*
$* PROPERTY CARDS
$*
$*  Property: PSHELL1
PSHELL         1       11.000000      -11.000000        0.833333  0.0000
$*
$* MATERIAL CARDS
$*
$*  Material: ABS::testigo_catpart_fem1::[1]
MAT1           12.0000+6        0.4000001.0500-67.0000-5
$*
$* LOAD AND CONSTRAINT CARDS
$*
$*  Constraint: Fixed(1)
SPC            1    8974  123456  0.0000
SPC            1    8975  123456  0.0000
SPC            1    8976  123456  0.0000
SPC            1    8977  123456  0.0000
SPC            1    8978  123456  0.0000
SPC            1    8979  123456  0.0000
SPC            1    8980  123456  0.0000
SPC            1    8981  123456  0.0000
SPC            1    8982  123456  0.0000
SPC            1    8983  123456  0.0000
SPC            1    8984  123456  0.0000
SPC            1    8985  123456  0.0000
SPC            1    8986  123456  0.0000
SPC            1    8987  123456  0.0000
SPC            1    8988  123456  0.0000
SPC            1    8989  123456  0.0000
SPC            1    8990  123456  0.0000
SPC            1    8991  123456  0.0000
SPC            1    8992  123456  0.0000
SPC            1    8993  123456  0.0000
SPC            1    8994  123456  0.0000
SPC            1    8995  123456  0.0000
SPC            1    8996  123456  0.0000
SPC            1    8997  123456  0.0000
SPC            1    8998  123456  0.0000
SPC            1    8999  123456  0.0000
SPC            1    9000  123456  0.0000
SPC            1    9001  123456  0.0000
SPC            1    9002  123456  0.0000
SPC            1    9003  123456  0.0000
SPC            1    9004  123456  0.0000
SPC            1    9005  123456  0.0000
SPC            1    9006  123456  0.0000
SPC            1    9007  123456  0.0000
SPC            1    9008  123456  0.0000
SPC            1    9009  123456  0.0000
SPC            1    9010  123456  0.0000
SPC            1    9011  123456  0.0000
SPC            1    9012  123456  0.0000
SPC            1    9013  123456  0.0000
SPC            1    9014  123456  0.0000
SPC            1    9015  123456  0.0000
SPC            1    9016  123456  0.0000
SPC            1    9017  123456  0.0000
SPC            1    9018  123456  0.0000
SPC            1    9019  123456  0.0000
SPC            1    9020  123456  0.0000
SPC            1    9021  123456  0.0000
SPC            1    9022  123456  0.0000
SPC            1    9023  123456  0.0000
SPC            1    9024  123456  0.0000
SPC            1    9025  123456  0.0000
SPC            1    9026  123456  0.0000
SPC            1    9027  123456  0.0000
SPC            1    9028  123456  0.0000
SPC            1    9029  123456  0.0000
SPC            1    9030  123456  0.0000
SPC            1    9031  123456  0.0000
SPC            1    9032  123456  0.0000
SPC            1    9033  123456  0.0000
SPC            1    9034  123456  0.0000
SPC            1    9035  123456  0.0000
SPC            1    9036  123456  0.0000
SPC            1    9037  123456  0.0000
SPC            1    9038  123456  0.0000
SPC            1    9335  123456  0.0000
SPC            1    9337  123456  0.0000
$*  Load: Force(1)
FORCE          2    9039       0101.0101  0.0000  0.00001.000000
FORCE          2    9040       0101.0101  0.0000  0.00001.000000
FORCE          2    9041       0101.0101  0.0000  0.00001.000000
FORCE          2    9042       0101.0101  0.0000  0.00001.000000
FORCE          2    9043       0101.0101  0.0000  0.00001.000000
FORCE          2    9044       0101.0101  0.0000  0.00001.000000
FORCE          2    9045       0101.0101  0.0000  0.00001.000000
FORCE          2    9046       0101.0101  0.0000  0.00001.000000
FORCE          2    9047       0101.0101  0.0000  0.00001.000000
FORCE          2    9048       0101.0101  0.0000  0.00001.000000
FORCE          2    9049       0101.0101  0.0000  0.00001.000000
FORCE          2    9050       0101.0101  0.0000  0.00001.000000
FORCE          2    9051       0101.0101  0.0000  0.00001.000000
FORCE          2    9052       0101.0101  0.0000  0.00001.000000
FORCE          2    9053       0101.0101  0.0000  0.00001.000000
FORCE          2    9054       0101.0101  0.0000  0.00001.000000
FORCE          2    9055       0101.0101  0.0000  0.00001.000000
FORCE          2    9056       0101.0101  0.0000  0.00001.000000
FORCE          2    9057       0101.0101  0.0000  0.00001.000000
FORCE          2    9058       0101.0101  0.0000  0.00001.000000
FORCE          2    9059       0101.0101  0.0000  0.00001.000000
FORCE          2    9060       0101.0101  0.0000  0.00001.000000
FORCE          2    9061       0101.0101  0.0000  0.00001.000000
FORCE          2    9062       0101.0101  0.0000  0.00001.000000
FORCE          2    9063       0101.0101  0.0000  0.00001.000000
FORCE          2    9064       0101.0101  0.0000  0.00001.000000
FORCE          2    9065       0101.0101  0.0000  0.00001.000000
FORCE          2    9066       0101.0101  0.0000  0.00001.000000
FORCE          2    9067       0101.0101  0.0000  0.00001.000000
FORCE          2    9068       0101.0101  0.0000  0.00001.000000
FORCE          2    9069       0101.0101  0.0000  0.00001.000000
FORCE          2    9070       0101.0101  0.0000  0.00001.000000
FORCE          2    9071       0202.0202  0.0000  0.00001.000000
FORCE          2    9072       0202.0202  0.0000  0.00001.000000
FORCE          2    9073       0202.0202  0.0000  0.00001.000000
FORCE          2    9074       0202.0202  0.0000  0.00001.000000
FORCE          2    9075       0202.0202  0.0000  0.00001.000000
FORCE          2    9076       0202.0202  0.0000  0.00001.000000
FORCE          2    9077       0202.0202  0.0000  0.00001.000000
FORCE          2    9078       0202.0202  0.0000  0.00001.000000
FORCE          2    9079       0202.0202  0.0000  0.00001.000000
FORCE          2    9080       0202.0202  0.0000  0.00001.000000
FORCE          2    9081       0202.0202  0.0000  0.00001.000000
FORCE          2    9082       0202.0202  0.0000  0.00001.000000
FORCE          2    9083       0202.0202  0.0000  0.00001.000000
FORCE          2    9084       0202.0202  0.0000  0.00001.000000
FORCE          2    9085       0202.0202  0.0000  0.00001.000000
FORCE          2    9086       0202.0202  0.0000  0.00001.000000
FORCE          2    9087       0202.0202  0.0000  0.00001.000000
FORCE          2    9088       0202.0202  0.0000  0.00001.000000
FORCE          2    9089       0202.0202  0.0000  0.00001.000000
FORCE          2    9090       0202.0202  0.0000  0.00001.000000
FORCE          2    9091       0202.0202  0.0000  0.00001.000000
FORCE          2    9092       0202.0202  0.0000  0.00001.000000
FORCE          2    9093       0202.0202  0.0000  0.00001.000000
FORCE          2    9094       0202.0202  0.0000  0.00001.000000
FORCE          2    9095       0202.0202  0.0000  0.00001.000000
FORCE          2    9096       0202.0202  0.0000  0.00001.000000
FORCE          2    9097       0202.0202  0.0000  0.00001.000000
FORCE          2    9098       0202.0202  0.0000  0.00001.000000
FORCE          2    9099       0202.0202  0.0000  0.00001.000000
FORCE          2    9100       0202.0202  0.0000  0.00001.000000
FORCE          2    9101       0202.0202  0.0000  0.00001.000000
FORCE          2    9102       0202.0202  0.0000  0.00001.000000
FORCE          2    9103       0202.0202  0.0000  0.00001.000000
FORCE          2    9334       0 50.5051  0.0000  0.00001.000000
FORCE          2    9338       0 50.5051  0.0000  0.00001.000000
ENDDATA c5900867
